LAMMPS (30 Mar 2026)
KOKKOS mode with Kokkos version 5.1.99 is enabled
  using double precision
  using view layout = legacy
  will use up to 1 GPU(s) per node
  using 8 OpenMP thread(s) per MPI task
package kokkos
package kokkos gpu/aware on newton on neigh half
# FENE beadspring benchmark

units           lj
atom_style      bond
special_bonds   fene

read_data       input/data.chain
Reading data file ...
  orthogonal box = (-16.796 -16.796 -16.796) to (16.796 16.796 16.796)
  1 by 1 by 1 MPI processor grid
  reading atoms ...
  32000 atoms
  reading velocities ...
  32000 velocities
  scanning bonds ...
  1 = max bonds/atom
  orthogonal box = (-16.796 -16.796 -16.796) to (16.796 16.796 16.796)
  1 by 1 by 1 MPI processor grid
  reading bonds ...
  31680 bonds
Finding 1-2 1-3 1-4 neighbors ...
  special bond factors lj:    0        1        1       
  special bond factors coul:  0        1        1       
     2 = max # of 1-2 neighbors
     2 = max # of special neighbors
  special bonds CPU = 0.100 seconds
  read_data CPU = 2.449 seconds

neighbor        0.4 bin
neigh_modify    every 1 delay 1

bond_style      fene
bond_coeff      1 30.0 1.5 1.0 1.0

pair_style      lj/cut 1.12
pair_modify     shift yes
pair_coeff      1 1 1.0 1.0 1.12

fix             1 all nve
fix             2 all langevin 1.0 1.0 10.0 904297

fix             3 all imd 8887 version 3 unwrap off nowait off trate 50 time off box off coordinates on velocities off forces off
Using fix imd with asynchronous I/O.

thermo          500
timestep        0.012

run             50000

CITE-CITE-CITE-CITE-CITE-CITE-CITE-CITE-CITE-CITE-CITE-CITE-CITE

Your simulation uses code contributions which should be cited:

- KOKKOS package: https://doi.org/10.1145/3731599.3767498

@inproceedings{Johansson25,
 author = {A. Johansson and E. Weinberg and C. Trott and M. McCarthy and S. Moore},
 title = {{LAMMPS-KOKKOS}: {P}erformance Portable Molecular Dynamics Across Exascale Architectures},
 year = 2025,
 booktitle = {Proceedings of the SC '25 Workshops of the International Conference for High Performance Computing,
  Networking, Storage and Analysis},
 pages = {1217–1232},
}

CITE-CITE-CITE-CITE-CITE-CITE-CITE-CITE-CITE-CITE-CITE-CITE-CITE

Generated 0 of 0 mixed pair_coeff terms from geometric mixing rule
WARNING: Communication cutoff 1.52 is shorter than a bond length based estimate of 1.855. This may lead to errors. (src/comm.cpp:694)
Neighbor list info ...
  update: every = 1 steps, delay = 1 steps, check = yes
  max neighbors/atom: 2000, page size: 100000
  master list distance cutoff = 1.52
  ghost atom cutoff = 1.52
  binsize = 1.52, bins = 23 23 23
  1 neighbor lists, perpetual/occasional/extra = 1 0 0
  (1) pair lj/cut/kk, perpetual
      attributes: half, newton on, kokkos_device
      pair build: half/bin/newton/kk/device
      stencil: half/bin/3d
      bin: kk/device
WARNING: Communication cutoff 1.52 is shorter than a bond length based estimate of 1.855. This may lead to errors. (src/comm.cpp:694)
Per MPI rank memory allocation (min/avg/max) = 29.98 | 29.98 | 29.98 Mbytes
   Step          Temp          E_pair         E_mol          TotEng         Press     
         0   0.97029772     0.44484087     20.494523      22.394765      4.6721833    
       500   0.98579958     0.44667931     20.502076      22.427409      4.7324279    
      1000   0.99601766     0.45360658     20.51168       22.459266      4.8017366    
      1500   0.9945388      0.45461116     20.515641      22.462013      4.8105161    
      2000   0.99962922     0.45178638     20.522614      22.473797      4.7777637    
      2500   0.99719453     0.45814823     20.511605      22.465499      4.7914662    
      3000   1.0035009      0.4515143      20.514483      22.471201      4.7009453    
      3500   1.0012072      0.45056049     20.512409      22.464733      4.756274     
      4000   1.0018311      0.44991755     20.515307      22.467925      4.7915154    
      4500   0.99618414     0.4516621      20.507143      22.453035      4.6820988    
      5000   1.0009427      0.44866991     20.514008      22.464045      4.7806245    
      5500   1.0003362      0.45134228     20.517844      22.469643      4.8151911    
      6000   1.0001668      0.44894144     20.516842      22.465986      4.8139631    
      6500   0.9950446      0.45291907     20.520506      22.465945      4.7891643    
      7000   1.0074949      0.45555669     20.513842      22.480593      4.7766814    
      7500   1.0035666      0.45280787     20.516091      22.474202      4.8912851    
      8000   1.0083295      0.45656232     20.514719      22.483728      4.7655143    
      8500   1.0090524      0.44786977     20.513209      22.47461       4.8944308    
      9000   0.99868301     0.45722544     20.515803      22.471006      4.8293964    
      9500   1.0044542      0.45199782     20.514576      22.473208      4.7332308    
     10000   1.0049822      0.45308649     20.519242      22.479755      4.8103317    
     10500   1.0044542      0.45696518     20.513497      22.477096      4.8398782    
     11000   0.99955555     0.45499948     20.512473      22.466759      4.8712565    
     11500   0.99576281     0.45692724     20.513954      22.464479      4.8365685    
     12000   1.0032277      0.45244702     20.51405       22.471291      4.7320799    
     12500   1.0044696      0.45597248     20.509738      22.472368      4.8091288    
     13000   1.0034222      0.45570426     20.507033      22.467824      4.7900034    
     13500   0.99892971     0.45071556     20.511657      22.460721      4.7460914    
     14000   0.99364529     0.45222162     20.51186       22.454503      4.7717646    
     14500   0.98883886     0.45106734     20.507165      22.441444      4.74974      
     15000   0.99528061     0.44845568     20.51572       22.45705       4.7450986    
     15500   1.0005413      0.45032021     20.507733      22.458818      4.8281433    
     16000   1.0040588      0.45815547     20.520692      22.484888      4.9161377    
     16500   1.0126085      0.45069609     20.520938      22.4905        4.8432456    
     17000   1.0051332      0.45581498     20.514434      22.477902      4.8690479    
     17500   1.003544       0.45619069     20.515634      22.477093      4.7826883    
     18000   1.0088622      0.44921587     20.51077       22.473232      4.7773748    
     18500   1.0009154      0.44832674     20.521708      22.471361      4.8119364    
     19000   0.99507306     0.45384851     20.520563      22.466974      4.7503102    
     19500   1.0008504      0.45686528     20.511621      22.469715      4.7275827    
     20000   1.0021203      0.45549994     20.51725       22.475884      4.886718     
     20500   1.0045742      0.45626714     20.512257      22.475338      4.8170376    
     21000   0.9988355      0.45685655     20.514241      22.469304      4.8802645    
     21500   0.99377866     0.4507061      20.520919      22.462246      4.7958145    
     22000   0.99840823     0.44903331     20.510741      22.457339      4.730537     
     22500   1.0039132      0.44608861     20.509658      22.461569      4.7505878    
     23000   0.99932568     0.45685424     20.507857      22.463653      4.8013464    
     23500   0.98727591     0.45558569     20.514541      22.450994      4.8062898    
     24000   0.99944382     0.45256676     20.513938      22.465624      4.7960465    
     24500   0.99713978     0.45450505     20.519211      22.469379      4.772339     
     25000   0.99940822     0.45280547     20.517536      22.469407      4.8114886    
     25500   0.99218524     0.45485463     20.518529      22.461615      4.839052     
     26000   1.0071347      0.4530474      20.51556       22.479263      4.744434     
     26500   1.0078036      0.45682754     20.518187      22.486673      4.8167171    
     27000   0.99801194     0.45393321     20.517538      22.468442      4.8755722    
     27500   1.0003294      0.45541358     20.520045      22.475906      4.8130977    
     28000   1.0068667      0.453773       20.516327      22.480353      4.7988793    
     28500   1.0048925      0.45340322     20.515431      22.476126      4.794249     
     29000   0.99928727     0.4460202      20.512885      22.457789      4.7403259    
     29500   0.99805509     0.45346519     20.512854      22.463355      4.8205999    
     30000   0.99689333     0.45404681     20.512948      22.462288      4.8757026    
     30500   0.99347217     0.44836403     20.512116      22.450642      4.7906173    
     31000   1.0045566      0.45236304     20.519654      22.478805      4.8472498    
     31500   1.0040595      0.45493686     20.518279      22.479258      4.8037689    
     32000   0.99571525     0.45920762     20.518683      22.471417      4.785734     
     32500   1.0017523      0.4620522      20.52171       22.486343      4.8174919    
     33000   1.0037271      0.46004032     20.520296      22.48588       4.9043614    
     33500   1.0039185      0.45087153     20.518458      22.47516       4.839909     
     34000   1.0013733      0.45480069     20.512583      22.469397      4.8158563    
     34500   1.0054033      0.45380768     20.51246       22.474326      4.7600848    
     35000   1.003224       0.45414905     20.520336      22.479274      4.7710034    
     35500   1.0034794      0.45139002     20.508836      22.465398      4.7508796    
     36000   0.99429293     0.45360474     20.514957      22.459954      4.7135986    
     36500   1.0010854      0.4479651      20.513732      22.463278      4.8034951    
     37000   0.99840354     0.45175909     20.525549      22.474867      4.7123336    
     37500   1.0063316      0.44910831     20.511451      22.47001       4.7598729    
     38000   1.0052089      0.4493805      20.515201      22.472348      4.6574059    
     38500   1.0003461      0.45101343     20.517657      22.469143      4.673592     
     39000   1.0032557      0.45354664     20.518992      22.477376      4.7509923    
     39500   1.0026566      0.45639063     20.51664       22.476969      4.7699361    
     40000   0.99898515     0.45829376     20.521466      22.478191      4.8205051    
     40500   0.99724907     0.45423717     20.518614      22.468678      4.8048416    
     41000   0.99811702     0.46056298     20.514032      22.471724      4.845226     
     41500   0.99591259     0.45162733     20.516356      22.461805      4.8486133    
     42000   1.0004337      0.45176523     20.508397      22.460766      4.8046978    
     42500   1.00227        0.44597547     20.509516      22.45885       4.7608134    
     43000   0.99651708     0.45130062     20.517952      22.463981      4.7444346    
     43500   1.0070008      0.45175334     20.514487      22.476695      4.700199     
     44000   1.0057342      0.45890008     20.514955      22.482409      4.7412873    
     44500   0.99664529     0.45542489     20.518287      22.468634      4.7722629    
     45000   1.001719       0.45018441     20.518292      22.471008      4.8787085    
     45500   1.0001513      0.45847997     20.521514      22.480174      4.8363892    
     46000   1.0045216      0.45579014     20.515316      22.477842      4.7479514    
     46500   1.0045158      0.45740253     20.514116      22.478245      4.8390681    
     47000   1.0092045      0.45629435     20.515498      22.485552      4.7966085    
     47500   1.0046736      0.45902564     20.511577      22.477566      4.8831136    
     48000   1.0011925      0.45157509     20.51845       22.471766      4.7599028    
     48500   0.99632626     0.45370945     20.528         22.476152      4.7894072    
     49000   1.0033867      0.45705044     20.519342      22.481425      4.8113119    
     49500   0.99805268     0.45621623     20.516699      22.469948      4.8121913    
     50000   0.99546404     0.45745472     20.51249       22.463094      4.7121414    
Loop time of 34.8849 on 8 procs for 50000 steps with 32000 atoms

Performance: 1486029.905 tau/day, 1433.285 timesteps/s, 45.865 Matom-step/s
98.6% CPU use with 1 MPI tasks x 8 OpenMP threads

MPI task timing breakdown:
Section |  min time  |  avg time  |  max time  |%varavg| %total
---------------------------------------------------------------
Pair    | 0.79994    | 0.79994    | 0.79994    |   0.0 |  2.29
Bond    | 2.8077     | 2.8077     | 2.8077     |   0.0 |  8.05
Neigh   | 3.7193     | 3.7193     | 3.7193     |   0.0 | 10.66
Comm    | 22.028     | 22.028     | 22.028     |   0.0 | 63.14
Output  | 0.0049543  | 0.0049543  | 0.0049543  |   0.0 |  0.01
Modify  | 2.9611     | 2.9611     | 2.9611     |   0.0 |  8.49
Other   |            | 2.564      |            |       |  7.35

Nlocal:          32000 ave       32000 max       32000 min
Histogram: 1 0 0 0 0 0 0 0 0 0
Nghost:           9468 ave        9468 max        9468 min
Histogram: 1 0 0 0 0 0 0 0 0 0
Neighs:         155504 ave      155504 max      155504 min
Histogram: 1 0 0 0 0 0 0 0 0 0

Total # of neighbors = 155504
Ave neighs/atom = 4.8595
Ave special neighs/atom = 1.98
Neighbor list builds = 12549
Dangerous builds = 0
Total wall time: 0:01:20
