LAMMPS (30 Mar 2026)
KOKKOS mode with Kokkos version 5.1.99 is enabled
  using double precision
  using view layout = legacy
  will use up to 1 GPU(s) per node
  using 8 OpenMP thread(s) per MPI task
package kokkos
package kokkos gpu/aware on newton on neigh half
# FENE beadspring benchmark

units           lj
atom_style      bond
special_bonds   fene

read_data       input/data.chain
Reading data file ...
  orthogonal box = (-16.796 -16.796 -16.796) to (16.796 16.796 16.796)
  1 by 1 by 1 MPI processor grid
  reading atoms ...
  32000 atoms
  reading velocities ...
  32000 velocities
  scanning bonds ...
  1 = max bonds/atom
  orthogonal box = (-16.796 -16.796 -16.796) to (16.796 16.796 16.796)
  1 by 1 by 1 MPI processor grid
  reading bonds ...
  31680 bonds
Finding 1-2 1-3 1-4 neighbors ...
  special bond factors lj:    0        1        1       
  special bond factors coul:  0        1        1       
     2 = max # of 1-2 neighbors
     2 = max # of special neighbors
  special bonds CPU = 0.067 seconds
  read_data CPU = 2.419 seconds

neighbor        0.4 bin
neigh_modify    every 1 delay 1

bond_style      fene
bond_coeff      1 30.0 1.5 1.0 1.0

pair_style      lj/cut 1.12
pair_modify     shift yes
pair_coeff      1 1 1.0 1.0 1.12

fix             1 all nve
fix             2 all langevin 1.0 1.0 10.0 904297

fix             3 all imd 8887 version 3 unwrap off nowait off trate 1 time off box off coordinates on velocities off forces off
Using fix imd with asynchronous I/O.

thermo          500
timestep        0.012

run             50000

CITE-CITE-CITE-CITE-CITE-CITE-CITE-CITE-CITE-CITE-CITE-CITE-CITE

Your simulation uses code contributions which should be cited:

- KOKKOS package: https://doi.org/10.1145/3731599.3767498

@inproceedings{Johansson25,
 author = {A. Johansson and E. Weinberg and C. Trott and M. McCarthy and S. Moore},
 title = {{LAMMPS-KOKKOS}: {P}erformance Portable Molecular Dynamics Across Exascale Architectures},
 year = 2025,
 booktitle = {Proceedings of the SC '25 Workshops of the International Conference for High Performance Computing,
  Networking, Storage and Analysis},
 pages = {1217–1232},
}

CITE-CITE-CITE-CITE-CITE-CITE-CITE-CITE-CITE-CITE-CITE-CITE-CITE

Generated 0 of 0 mixed pair_coeff terms from geometric mixing rule
WARNING: Communication cutoff 1.52 is shorter than a bond length based estimate of 1.855. This may lead to errors. (src/comm.cpp:694)
Neighbor list info ...
  update: every = 1 steps, delay = 1 steps, check = yes
  max neighbors/atom: 2000, page size: 100000
  master list distance cutoff = 1.52
  ghost atom cutoff = 1.52
  binsize = 1.52, bins = 23 23 23
  1 neighbor lists, perpetual/occasional/extra = 1 0 0
  (1) pair lj/cut/kk, perpetual
      attributes: half, newton on, kokkos_device
      pair build: half/bin/newton/kk/device
      stencil: half/bin/3d
      bin: kk/device
WARNING: Communication cutoff 1.52 is shorter than a bond length based estimate of 1.855. This may lead to errors. (src/comm.cpp:694)
Per MPI rank memory allocation (min/avg/max) = 29.98 | 29.98 | 29.98 Mbytes
   Step          Temp          E_pair         E_mol          TotEng         Press     
         0   0.97029772     0.44484087     20.494523      22.394765      4.6721833    
       500   0.98782156     0.44122012     20.509347      22.432253      4.7238297    
      1000   0.98853915     0.44773945     20.514851      22.445353      4.7943811    
      1500   0.99219731     0.45588059     20.508774      22.452904      4.7450018    
      2000   0.98977787     0.45057972     20.516937      22.452137      4.8495389    
      2500   1.0001171      0.44638319     20.507858      22.45437       4.8216944    
      3000   0.98951522     0.45288458     20.510933      22.448044      4.8079844    
      3500   1.0012633      0.45001658     20.517036      22.4689        4.8129293    
      4000   0.99634386     0.45679917     20.52003       22.471299      4.8767099    
      4500   0.99538332     0.46223813     20.513641      22.468907      4.7977821    
      5000   1.0018562      0.4549568      20.516314      22.474008      4.7517282    
      5500   1.0063681      0.45355494     20.514186      22.477246      4.8047872    
      6000   1.0032168      0.45326829     20.516213      22.474259      4.9207437    
      6500   1.0005217      0.45102562     20.518974      22.470735      4.7908178    
      7000   1.0073856      0.45574765     20.508566      22.475344      4.8374444    
      7500   1.0011396      0.45090049     20.513197      22.46576       4.8139139    
      8000   0.99901647     0.44842697     20.516959      22.463864      4.8242939    
      8500   0.99522838     0.4490755      20.507377      22.449248      4.7833983    
      9000   0.9940351      0.4543152      20.514123      22.459444      4.7374091    
      9500   0.99826548     0.45636696     20.515167      22.468886      4.8374904    
     10000   0.99812243     0.45628034     20.518906      22.472323      4.8794939    
     10500   0.99396211     0.45328245     20.520576      22.464755      4.8524259    
     11000   1.0059172      0.45063708     20.509312      22.468777      4.7499712    
     11500   1.0037409      0.45785491     20.513127      22.476546      4.7616091    
     12000   0.99797349     0.45305199     20.523037      22.473003      4.7465322    
     12500   0.9988631      0.45193571     20.519069      22.469253      4.7913067    
     13000   0.98925724     0.45339091     20.51456       22.451791      4.7284139    
     13500   0.99660091     0.45177771     20.517484      22.464116      4.7982497    
     14000   0.99999799     0.44986421     20.517894      22.467709      4.7517681    
     14500   1.0052417      0.45134761     20.512028      22.471191      4.837659     
     15000   1.0019762      0.45543027     20.509204      22.467552      4.7868512    
     15500   1.0043803      0.4531644      20.518859      22.478547      4.8033002    
     16000   1.0053523      0.45286947     20.520852      22.481703      4.7222104    
     16500   1.000245       0.45512086     20.517808      22.473249      4.7301728    
     17000   1.0051054      0.45045154     20.513514      22.471577      4.7410569    
     17500   0.99854365     0.44995825     20.516928      22.464655      4.786133     
     18000   1.0116416      0.45520701     20.517143      22.489765      4.7725283    
     18500   1.0104224      0.45515361     20.514042      22.484782      4.7415139    
     19000   0.99805555     0.45366447     20.519835      22.470536      4.8098599    
     19500   0.99938638     0.45500127     20.519068      22.473102      4.8243612    
     20000   1.0024935      0.4447991      20.513156      22.461649      4.8298625    
     20500   1.0011809      0.44665923     20.522111      22.470494      4.858593     
     21000   1.0039229      0.45012719     20.516297      22.472262      4.7721577    
     21500   1.0071391      0.45632974     20.513357      22.480348      4.8182206    
     22000   1.0090455      0.45340035     20.514025      22.480947      4.6859769    
     22500   1.0007873      0.4529103      20.520537      22.474582      4.7549475    
     23000   1.0004931      0.45361901     20.517513      22.471824      4.7995298    
     23500   1.0058325      0.45467538     20.511727      22.475103      4.8176841    
     24000   1.0022603      0.4504657      20.512854      22.466663      4.7785506    
     24500   1.0046271      0.45209641     20.515376      22.474366      4.7703511    
     25000   1.0038432      0.4538716      20.513263      22.472853      4.7309307    
     25500   1.0071713      0.45513128     20.51741       22.483251      4.7785122    
     26000   1.0055376      0.4562457      20.52138       22.485885      4.7415418    
     26500   1.0103551      0.45334553     20.519785      22.488616      4.905867     
     27000   1.0093799      0.45655715     20.514331      22.484911      4.8228133    
     27500   0.99403364     0.44979078     20.519805      22.4606        4.7512289    
     28000   1.0046437      0.45132646     20.517274      22.475519      4.7822276    
     28500   1.0038008      0.45925841     20.512167      22.477079      4.8142127    
     29000   1.0063006      0.45968335     20.512043      22.48113       4.8850674    
     29500   1.0044694      0.45949124     20.517712      22.48386       4.8475016    
     30000   0.99948662     0.45635468     20.518324      22.473862      4.7858757    
     30500   1.0042244      0.45228037     20.515093      22.473663      4.778184     
     31000   1.0011236      0.45795573     20.517353      22.476948      4.7876267    
     31500   1.0032041      0.4497168      20.518472      22.472948      4.7189545    
     32000   0.99716895     0.45341449     20.523439      22.47256       4.8369172    
     32500   1.0014705      0.44930479     20.522715      22.474179      4.7982756    
     33000   0.99880081     0.45255637     20.526188      22.476899      4.8202374    
     33500   1.0044045      0.4577701      20.516673      22.481003      4.9124183    
     34000   1.0094428      0.451211       20.511422      22.47675       4.7706323    
     34500   1.0020187      0.45929228     20.519094      22.481368      4.8266425    
     35000   1.0045562      0.45787657     20.519013      22.483676      4.79368      
     35500   1.0002361      0.45742648     20.511177      22.468911      4.6971624    
     36000   0.99659469     0.4643358      20.520178      22.479359      4.8327761    
     36500   1.0042334      0.45676174     20.522994      22.486059      4.7976106    
     37000   1.0063204      0.44941413     20.517624      22.476472      4.7706907    
     37500   1.0025229      0.44951774     20.512583      22.465838      4.8463623    
     38000   0.99904377     0.45305289     20.513106      22.464677      4.7956238    
     38500   0.99639275     0.45535798     20.512954      22.462855      4.7895667    
     39000   0.99945238     0.45167242     20.520237      22.471042      4.7889331    
     39500   1.0018778      0.45729359     20.516294      22.476357      4.8599218    
     40000   1.008376       0.45620251     20.522544      22.491263      4.8228283    
     40500   1.0094934      0.44899837     20.513554      22.476745      4.6738566    
     41000   1.0039274      0.44994186     20.522138      22.477924      4.8003811    
     41500   1.0094797      0.45655792     20.507826      22.478556      4.784916     
     42000   1.0057703      0.45154196     20.52162       22.48177       4.7763103    
     42500   1.0034697      0.45981676     20.517486      22.48246       4.8303552    
     43000   1.0061145      0.45354158     20.518697      22.481363      4.7834615    
     43500   1.0040114      0.45245406     20.507866      22.46629       4.799215     
     44000   1.0036694      0.45253838     20.516048      22.474043      4.8166338    
     44500   1.0059138      0.45700081     20.516483      22.482307      4.8109105    
     45000   1.0077963      0.45030353     20.519443      22.481394      4.793303     
     45500   1.0106891      0.44950931     20.51389       22.479386      4.7466687    
     46000   1.0082829      0.45234423     20.519219      22.483941      4.7860861    
     46500   1.0056566      0.45425211     20.51017       22.47286       4.8054472    
     47000   0.99950633     0.4597431      20.51803       22.476986      4.8590114    
     47500   1.0002224      0.45289918     20.520403      22.473588      4.730404     
     48000   0.99887788     0.45694519     20.512843      22.468058      4.8332854    
     48500   1.0016138      0.45580079     20.514953      22.473127      4.8817973    
     49000   1.0016634      0.45043        20.521615      22.474493      4.8357447    
     49500   0.9960157      0.45379684     20.515227      22.463001      4.6805018    
     50000   0.9993317      0.45899966     20.517208      22.475158      4.7468071    
Loop time of 99.7562 on 8 procs for 50000 steps with 32000 atoms

Performance: 519667.136 tau/day, 501.222 timesteps/s, 16.039 Matom-step/s
98.9% CPU use with 1 MPI tasks x 8 OpenMP threads

MPI task timing breakdown:
Section |  min time  |  avg time  |  max time  |%varavg| %total
---------------------------------------------------------------
Pair    | 0.83553    | 0.83553    | 0.83553    |   0.0 |  0.84
Bond    | 2.8253     | 2.8253     | 2.8253     |   0.0 |  2.83
Neigh   | 3.6785     | 3.6785     | 3.6785     |   0.0 |  3.69
Comm    | 21.997     | 21.997     | 21.997     |   0.0 | 22.05
Output  | 0.0046992  | 0.0046992  | 0.0046992  |   0.0 |  0.00
Modify  | 67.791     | 67.791     | 67.791     |   0.0 | 67.96
Other   |            | 2.624      |            |       |  2.63

Nlocal:          32000 ave       32000 max       32000 min
Histogram: 1 0 0 0 0 0 0 0 0 0
Nghost:           9566 ave        9566 max        9566 min
Histogram: 1 0 0 0 0 0 0 0 0 0
Neighs:         155720 ave      155720 max      155720 min
Histogram: 1 0 0 0 0 0 0 0 0 0

Total # of neighbors = 155720
Ave neighs/atom = 4.86625
Ave special neighs/atom = 1.98
Neighbor list builds = 12554
Dangerous builds = 0
Total wall time: 0:02:25
