LAMMPS (30 Mar 2026)
KOKKOS mode with Kokkos version 5.1.99 is enabled
  using double precision
  using view layout = legacy
  will use up to 1 GPU(s) per node
  using 8 OpenMP thread(s) per MPI task
package kokkos
package kokkos gpu/aware on newton on neigh half
# FENE beadspring benchmark

units           lj
atom_style      bond
special_bonds   fene

read_data       input/data.chain
Reading data file ...
  orthogonal box = (-16.796 -16.796 -16.796) to (16.796 16.796 16.796)
  1 by 1 by 1 MPI processor grid
  reading atoms ...
  32000 atoms
  reading velocities ...
  32000 velocities
  scanning bonds ...
  1 = max bonds/atom
  orthogonal box = (-16.796 -16.796 -16.796) to (16.796 16.796 16.796)
  1 by 1 by 1 MPI processor grid
  reading bonds ...
  31680 bonds
Finding 1-2 1-3 1-4 neighbors ...
  special bond factors lj:    0        1        1       
  special bond factors coul:  0        1        1       
     2 = max # of 1-2 neighbors
     2 = max # of special neighbors
  special bonds CPU = 0.100 seconds
  read_data CPU = 2.448 seconds

neighbor        0.4 bin
neigh_modify    every 1 delay 1

bond_style      fene
bond_coeff      1 30.0 1.5 1.0 1.0

pair_style      lj/cut 1.12
pair_modify     shift yes
pair_coeff      1 1 1.0 1.0 1.12

fix             1 all nve
fix             2 all langevin 1.0 1.0 10.0 904297

fix             3 all imd 8887 version 3 unwrap off nowait off trate 8 time off box off coordinates on velocities on forces on
Using fix imd with asynchronous I/O.

thermo          500
timestep        0.012

run             50000

CITE-CITE-CITE-CITE-CITE-CITE-CITE-CITE-CITE-CITE-CITE-CITE-CITE

Your simulation uses code contributions which should be cited:

- KOKKOS package: https://doi.org/10.1145/3731599.3767498

@inproceedings{Johansson25,
 author = {A. Johansson and E. Weinberg and C. Trott and M. McCarthy and S. Moore},
 title = {{LAMMPS-KOKKOS}: {P}erformance Portable Molecular Dynamics Across Exascale Architectures},
 year = 2025,
 booktitle = {Proceedings of the SC '25 Workshops of the International Conference for High Performance Computing,
  Networking, Storage and Analysis},
 pages = {1217–1232},
}

CITE-CITE-CITE-CITE-CITE-CITE-CITE-CITE-CITE-CITE-CITE-CITE-CITE

Generated 0 of 0 mixed pair_coeff terms from geometric mixing rule
WARNING: Communication cutoff 1.52 is shorter than a bond length based estimate of 1.855. This may lead to errors. (src/comm.cpp:694)
Neighbor list info ...
  update: every = 1 steps, delay = 1 steps, check = yes
  max neighbors/atom: 2000, page size: 100000
  master list distance cutoff = 1.52
  ghost atom cutoff = 1.52
  binsize = 1.52, bins = 23 23 23
  1 neighbor lists, perpetual/occasional/extra = 1 0 0
  (1) pair lj/cut/kk, perpetual
      attributes: half, newton on, kokkos_device
      pair build: half/bin/newton/kk/device
      stencil: half/bin/3d
      bin: kk/device
WARNING: Communication cutoff 1.52 is shorter than a bond length based estimate of 1.855. This may lead to errors. (src/comm.cpp:694)
Per MPI rank memory allocation (min/avg/max) = 29.98 | 29.98 | 29.98 Mbytes
   Step          Temp          E_pair         E_mol          TotEng         Press     
         0   0.97029772     0.44484087     20.494523      22.394765      4.6721833    
       500   0.99108403     0.44798447     20.511733      22.446297      4.7432333    
      1000   0.98640546     0.45046813     20.516319      22.446349      4.770034     
      1500   0.99695616     0.45967696     20.510172      22.465236      4.8495604    
      2000   1.0098293      0.45080333     20.516243      22.481743      4.7219779    
      2500   1.0078998      0.46011427     20.512082      22.483999      4.8596257    
      3000   1.0067905      0.45279785     20.518185      22.481121      4.7900548    
      3500   1.0001557      0.45887977     20.517572      22.476638      4.7958154    
      4000   0.99544717     0.45197627     20.516176      22.461276      4.7929449    
      4500   0.9996136      0.45512226     20.507245      22.46174       4.8415811    
      5000   1.0048918      0.45626473     20.513794      22.47735       4.7943241    
      5500   0.99888551     0.4531291      20.514991      22.466402      4.8117881    
      6000   0.99126676     0.45265117     20.523671      22.463176      4.781216     
      6500   0.99729352     0.45089086     20.511673      22.458458      4.7571683    
      7000   0.99697407     0.44710143     20.521917      22.464432      4.7250483    
      7500   0.99670706     0.45392017     20.513387      22.462321      4.799913     
      8000   0.99200376     0.46146862     20.514428      22.463856      4.8518931    
      8500   0.99358888     0.44901404     20.519076      22.458427      4.7665349    
      9000   0.99692561     0.45026972     20.505755      22.451367      4.7310043    
      9500   0.99519794     0.45463868     20.520917      22.468306      4.8478516    
     10000   0.99716115     0.4520055      20.5216        22.469301      4.8410001    
     10500   1.0020614      0.45240167     20.511231      22.466678      4.8488808    
     11000   0.99690118     0.45302367     20.517441      22.46577       4.8727803    
     11500   0.99770898     0.45485446     20.508244      22.459615      4.7654231    
     12000   1.0003053      0.45293751     20.517235      22.470584      4.7460093    
     12500   0.99961525     0.45694514     20.517206      22.473527      4.8675375    
     13000   1.0029372      0.45348639     20.519048      22.476893      4.7767652    
     13500   1.0029122      0.45478884     20.516936      22.476046      4.8266041    
     14000   1.000373       0.45021486     20.522423      22.47315       4.7539265    
     14500   1.0071797      0.45322036     20.516355      22.480297      4.8091001    
     15000   1.0037198      0.46166299     20.515713      22.482908      4.8791937    
     15500   1.0053535      0.45307935     20.522136      22.483199      4.8347017    
     16000   1.0021886      0.45340068     20.516236      22.472873      4.746827     
     16500   0.99727753     0.45013851     20.518191      22.464199      4.752617     
     17000   1.0028796      0.45675737     20.515149      22.476178      4.8940015    
     17500   1.0014044      0.45594928     20.517863      22.475872      4.7520079    
     18000   1.0012508      0.45546294     20.516037      22.47333       4.8129058    
     18500   0.9997274      0.45071189     20.520137      22.470393      4.7757903    
     19000   1.0091371      0.45552092     20.509438      22.478618      4.7898906    
     19500   1.0037711      0.45329733     20.517567      22.476473      4.7618314    
     20000   1.0072538      0.45120936     20.513162      22.475205      4.7298179    
     20500   1.0071309      0.44888433     20.519817      22.47935       4.7019606    
     21000   0.99865334     0.45595192     20.518622      22.472507      4.7333604    
     21500   0.99929294     0.45741756     20.515104      22.471414      4.7835417    
     22000   1.0085347      0.45772641     20.514414      22.484895      4.7614069    
     22500   1.0127734      0.45442137     20.514368      22.487902      4.7218       
     23000   1.0092892      0.44377512     20.517269      22.474931      4.7296278    
     23500   1.0020046      0.45808714     20.521674      22.482721      4.8543693    
     24000   1.0021381      0.45496566     20.51554       22.473666      4.7462008    
     24500   1.0044893      0.45112995     20.51747       22.475286      4.8299102    
     25000   1.0072063      0.45556554     20.514348      22.480676      4.7368657    
     25500   1.0007988      0.45568429     20.51879       22.475626      4.6943921    
     26000   1.0002254      0.45644792     20.512853      22.469592      4.7201737    
     26500   1.0019902      0.46048742     20.511852      22.475278      4.8524078    
     27000   1.000348       0.45190617     20.517663      22.470044      4.7255978    
     27500   1.0025443      0.44714676     20.513706      22.464622      4.7284944    
     28000   1.0036902      0.45618482     20.511807      22.47348       4.7084038    
     28500   1.0023492      0.45743078     20.506677      22.467585      4.7707348    
     29000   1.0083281      0.45071357     20.517839      22.480997      4.7796337    
     29500   1.0061826      0.45718722     20.514159      22.480573      4.8166585    
     30000   0.99962845     0.44606087     20.519092      22.464549      4.7244983    
     30500   0.9966816      0.45977579     20.514846      22.469597      4.7800517    
     31000   1.0024486      0.45781096     20.522848      22.484285      4.7852389    
     31500   1.0004127      0.45740354     20.515058      22.473034      4.8082865    
     32000   0.99990585     0.45856055     20.518861      22.477233      4.7660342    
     32500   1.0049946      0.45651335     20.514678      22.478636      4.8352429    
     33000   1.0024425      0.454924       20.515187      22.473728      4.7544642    
     33500   0.99559015     0.45586595     20.515798      22.465002      4.8329505    
     34000   1.0094388      0.45283771     20.51162       22.478569      4.7746169    
     34500   1.0032419      0.45386905     20.523583      22.482268      4.7879197    
     35000   0.99785676     0.45897725     20.523071      22.478787      4.8530452    
     35500   0.99654233     0.45287445     20.518874      22.466515      4.7976956    
     36000   1.0060026      0.45048946     20.511496      22.470942      4.7808727    
     36500   1.0069514      0.45760981     20.514985      22.482975      4.7854499    
     37000   1.0058056      0.45422527     20.51497       22.477857      4.8459648    
     37500   1.0037512      0.45283025     20.518775      22.477185      4.891751     
     38000   1.0016219      0.45450577     20.517834      22.474725      4.8501372    
     38500   1.0064915      0.4567891      20.513163      22.479642      4.8088925    
     39000   1.0049575      0.45902449     20.517889      22.484303      4.7759324    
     39500   1.0081869      0.44964635     20.51698       22.478859      4.7415403    
     40000   0.99588949     0.45376073     20.517855      22.465403      4.9072272    
     40500   1.0040685      0.45093161     20.507412      22.4644        4.8613646    
     41000   0.99937711     0.45685957     20.517692      22.473571      4.7758547    
     41500   1.007211       0.45573604     20.516932      22.483437      4.8928566    
     42000   1.0013435      0.45800476     20.509076      22.469049      4.7909392    
     42500   1.0036434      0.45889955     20.517747      22.482064      4.8063248    
     43000   1.0014798      0.45482435     20.51949       22.476487      4.7947264    
     43500   1.0037904      0.44811783     20.508048      22.461804      4.7372291    
     44000   0.99737662     0.45404832     20.52066       22.470726      4.7343559    
     44500   0.99696146     0.44838011     20.516867      22.460643      4.7678896    
     45000   1.0018461      0.45318386     20.507764      22.46367       4.8025096    
     45500   1.0003333      0.45631131     20.517023      22.473788      4.8882768    
     46000   1.000831       0.4591052      20.512317      22.472622      4.7512259    
     46500   1.0014967      0.4608491      20.51666       22.479707      4.8181372    
     47000   1.0062309      0.45106338     20.51941       22.479772      4.7364268    
     47500   0.99663135     0.45111751     20.521721      22.467739      4.7683709    
     48000   0.99961934     0.45404339     20.518196      22.471621      4.7600678    
     48500   1.0062844      0.45461355     20.509286      22.473279      4.806231     
     49000   0.99760041     0.45239086     20.516862      22.465607      4.6765304    
     49500   1.0039151      0.45332223     20.511243      22.470391      4.8196845    
     50000   1.0033526      0.45365149     20.509251      22.467884      4.8571326    
Loop time of 60.281 on 8 procs for 50000 steps with 32000 atoms

Performance: 859971.855 tau/day, 829.448 timesteps/s, 26.542 Matom-step/s
96.4% CPU use with 1 MPI tasks x 8 OpenMP threads

MPI task timing breakdown:
Section |  min time  |  avg time  |  max time  |%varavg| %total
---------------------------------------------------------------
Pair    | 0.86618    | 0.86618    | 0.86618    |   0.0 |  1.44
Bond    | 2.9769     | 2.9769     | 2.9769     |   0.0 |  4.94
Neigh   | 3.8988     | 3.8988     | 3.8988     |   0.0 |  6.47
Comm    | 23.7       | 23.7       | 23.7       |   0.0 | 39.32
Output  | 0.0040919  | 0.0040919  | 0.0040919  |   0.0 |  0.01
Modify  | 26.097     | 26.097     | 26.097     |   0.0 | 43.29
Other   |            | 2.738      |            |       |  4.54

Nlocal:          32000 ave       32000 max       32000 min
Histogram: 1 0 0 0 0 0 0 0 0 0
Nghost:           9543 ave        9543 max        9543 min
Histogram: 1 0 0 0 0 0 0 0 0 0
Neighs:         155799 ave      155799 max      155799 min
Histogram: 1 0 0 0 0 0 0 0 0 0

Total # of neighbors = 155799
Ave neighs/atom = 4.8687188
Ave special neighs/atom = 1.98
Neighbor list builds = 12547
Dangerous builds = 0
Total wall time: 0:01:45
