LAMMPS (30 Mar 2026)
KOKKOS mode with Kokkos version 5.1.99 is enabled
  using double precision
  using view layout = legacy
  will use up to 1 GPU(s) per node
  using 8 OpenMP thread(s) per MPI task
package kokkos
package kokkos gpu/aware on newton on neigh half
# FENE beadspring benchmark

units           lj
atom_style      bond
special_bonds   fene

read_data       input/data.chain
Reading data file ...
  orthogonal box = (-16.796 -16.796 -16.796) to (16.796 16.796 16.796)
  1 by 1 by 1 MPI processor grid
  reading atoms ...
  32000 atoms
  reading velocities ...
  32000 velocities
  scanning bonds ...
  1 = max bonds/atom
  orthogonal box = (-16.796 -16.796 -16.796) to (16.796 16.796 16.796)
  1 by 1 by 1 MPI processor grid
  reading bonds ...
  31680 bonds
Finding 1-2 1-3 1-4 neighbors ...
  special bond factors lj:    0        1        1       
  special bond factors coul:  0        1        1       
     2 = max # of 1-2 neighbors
     2 = max # of special neighbors
  special bonds CPU = 0.101 seconds
  read_data CPU = 2.457 seconds

neighbor        0.4 bin
neigh_modify    every 1 delay 1

bond_style      fene
bond_coeff      1 30.0 1.5 1.0 1.0

pair_style      lj/cut 1.12
pair_modify     shift yes
pair_coeff      1 1 1.0 1.0 1.12

fix             1 all nve
fix             2 all langevin 1.0 1.0 10.0 904297

fix             3 all imd 8887 version 3 unwrap off nowait off trate 1 time off box off coordinates on velocities off forces off
Using fix imd with asynchronous I/O.

thermo          500
timestep        0.012

run             50000

CITE-CITE-CITE-CITE-CITE-CITE-CITE-CITE-CITE-CITE-CITE-CITE-CITE

Your simulation uses code contributions which should be cited:

- KOKKOS package: https://doi.org/10.1145/3731599.3767498

@inproceedings{Johansson25,
 author = {A. Johansson and E. Weinberg and C. Trott and M. McCarthy and S. Moore},
 title = {{LAMMPS-KOKKOS}: {P}erformance Portable Molecular Dynamics Across Exascale Architectures},
 year = 2025,
 booktitle = {Proceedings of the SC '25 Workshops of the International Conference for High Performance Computing,
  Networking, Storage and Analysis},
 pages = {1217–1232},
}

CITE-CITE-CITE-CITE-CITE-CITE-CITE-CITE-CITE-CITE-CITE-CITE-CITE

Generated 0 of 0 mixed pair_coeff terms from geometric mixing rule
WARNING: Communication cutoff 1.52 is shorter than a bond length based estimate of 1.855. This may lead to errors. (src/comm.cpp:694)
Neighbor list info ...
  update: every = 1 steps, delay = 1 steps, check = yes
  max neighbors/atom: 2000, page size: 100000
  master list distance cutoff = 1.52
  ghost atom cutoff = 1.52
  binsize = 1.52, bins = 23 23 23
  1 neighbor lists, perpetual/occasional/extra = 1 0 0
  (1) pair lj/cut/kk, perpetual
      attributes: half, newton on, kokkos_device
      pair build: half/bin/newton/kk/device
      stencil: half/bin/3d
      bin: kk/device
WARNING: Communication cutoff 1.52 is shorter than a bond length based estimate of 1.855. This may lead to errors. (src/comm.cpp:694)
Per MPI rank memory allocation (min/avg/max) = 29.98 | 29.98 | 29.98 Mbytes
   Step          Temp          E_pair         E_mol          TotEng         Press     
         0   0.97029772     0.44484087     20.494523      22.394765      4.6721833    
       500   0.98091437     0.44844298     20.502605      22.422373      4.7453924    
      1000   0.9951902      0.44744662     20.508478      22.448664      4.7050714    
      1500   1.0004755      0.45737987     20.511543      22.469589      4.8027485    
      2000   1.0052654      0.45221944     20.516707      22.476777      4.8654791    
      2500   1.0047421      0.45408015     20.522845      22.483992      4.821594     
      3000   0.99937004     0.4553083      20.518392      22.472708      4.7179774    
      3500   1.0016921      0.45461696     20.521013      22.478121      4.8199554    
      4000   0.99855351     0.44919136     20.522517      22.469492      4.6767264    
      4500   0.99662404     0.45552939     20.521318      22.471737      4.7711539    
      5000   0.99803915     0.45792795     20.511802      22.466742      4.8726253    
      5500   0.99816862     0.45260669     20.517425      22.467237      4.7587396    
      6000   0.99446781     0.46044828     20.515923      22.468026      4.8405949    
      6500   0.99373901     0.45765586     20.511388      22.459606      4.8335187    
      7000   0.99675895     0.45554007     20.506318      22.45695       4.7099616    
      7500   0.98972086     0.45623929     20.521299      22.462073      4.8817383    
      8000   0.99634925     0.45506095     20.513853      22.463391      4.8307374    
      8500   1.0064543      0.45590841     20.506473      22.472016      4.786239     
      9000   1.0063469      0.45301659     20.513069      22.475558      4.7099969    
      9500   1.000963       0.45441702     20.515928      22.471742      4.8035086    
     10000   0.99706368     0.45612256     20.521033      22.472705      4.7680597    
     10500   1.0049696      0.44949962     20.511844      22.468751      4.7114582    
     11000   0.99281844     0.45729041     20.518507      22.464978      4.8097764    
     11500   0.99478141     0.45196658     20.514124      22.458216      4.7460005    
     12000   0.99420567     0.45553936     20.516991      22.463792      4.8374501    
     12500   0.99616083     0.45781131     20.515819      22.467825      4.8141688    
     13000   0.99932618     0.4553253      20.518512      22.472779      4.8777594    
     13500   1.0028194      0.45328263     20.513025      22.470489      4.7578173    
     14000   1.0016028      0.44668091     20.520487      22.469525      4.7838622    
     14500   1.0002157      0.45107158     20.519523      22.470872      4.8582914    
     15000   0.99773736     0.45459663     20.518369      22.469525      4.8073383    
     15500   1.0066736      0.45396487     20.51043       22.474358      4.7244247    
     16000   1.0003098      0.45119627     20.516072      22.467686      4.854498     
     16500   1.0054707      0.45738377     20.513079      22.478622      4.6976857    
     17000   0.99922719     0.45691189     20.517738      22.473444      4.7949816    
     17500   0.99873823     0.4526457      20.515893      22.466599      4.8720814    
     18000   1.0066972      0.45200272     20.511532      22.473533      4.7995991    
     18500   1.0014351      0.45612063     20.517251      22.475478      4.8214988    
     19000   0.99867577     0.45655935     20.518876      22.473402      4.7574056    
     19500   1.0035869      0.45283279     20.518094      22.476261      4.7696912    
     20000   0.99637521     0.45172067     20.521031      22.467268      4.8078703    
     20500   1.0060561      0.45183064     20.518177      22.479044      4.7499306    
     21000   0.99955785     0.46078349     20.511814      22.471888      4.7893457    
     21500   1.0006308      0.44955584     20.525456      22.475911      4.8115884    
     22000   0.99905238     0.45642253     20.522771      22.477725      4.8520918    
     22500   1.0032959      0.45197755     20.51339       22.470265      4.8291869    
     23000   1.0036909      0.45607986     20.518898      22.480467      4.8052604    
     23500   0.99868165     0.46271925     20.524278      22.484973      4.8129284    
     24000   1.0064306      0.44693682     20.511429      22.467965      4.6909388    
     24500   0.99747424     0.45489877     20.506974      22.458037      4.8129543    
     25000   1.002902       0.45703236     20.512077      22.473415      4.8493957    
     25500   0.99189462     0.45630614     20.527656      22.471757      4.8398621    
     26000   0.99016535     0.45646533     20.528776      22.470443      4.8184563    
     26500   0.99051916     0.45690467     20.514095      22.456732      4.7340164    
     27000   0.99712294     0.45265854     20.510036      22.458333      4.781718     
     27500   0.99803453     0.45275418     20.517022      22.466781      4.8088994    
     28000   1.0041208      0.45154939     20.51015       22.467833      4.7211605    
     28500   1.0080822      0.45579766     20.517951      22.485825      4.8634703    
     29000   1.0110322      0.46121869     20.517091      22.494811      4.8063475    
     29500   0.99546045     0.45941206     20.520186      22.472742      4.8485454    
     30000   1.0042508      0.46153141     20.514619      22.48248       4.8922688    
     30500   1.001464       0.45120774     20.515524      22.46888       4.7898083    
     31000   1.0034345      0.45189212     20.516943      22.47394       4.7514447    
     31500   1.005741       0.44913245     20.519971      22.477668      4.8218012    
     32000   0.99823388     0.44903961     20.51645       22.462794      4.7961099    
     32500   0.99652038     0.45576462     20.513613      22.464112      4.7655288    
     33000   1.0047634      0.45195333     20.514454      22.473505      4.7207794    
     33500   0.99940397     0.45329652     20.515491      22.467847      4.8521563    
     34000   0.99762176     0.45538176     20.521515      22.473283      4.7807039    
     34500   0.99965955     0.45840561     20.521041      22.478889      4.76162      
     35000   1.0128339      0.45729622     20.512789      22.489289      4.9149369    
     35500   1.0035025      0.45574081     20.520286      22.481233      4.820181     
     36000   1.0103289      0.45346643     20.512471      22.481384      4.7826659    
     36500   1.0032428      0.45742773     20.518365      22.48061       4.7688103    
     37000   1.0061477      0.45673158     20.514046      22.479952      4.8954185    
     37500   1.0105445      0.45872418     20.516608      22.491101      4.8407677    
     38000   1.0048794      0.44579257     20.521255      22.474319      4.8273075    
     38500   0.99988399     0.45185493     20.512076      22.46371       4.7708075    
     39000   1.0044666      0.45702511     20.51384       22.477518      4.8824893    
     39500   0.99991258     0.45567439     20.526108      22.481604      4.8285963    
     40000   0.99657738     0.45366753     20.521449      22.469936      4.8430329    
     40500   0.99996055     0.45184059     20.519239      22.470973      4.8384313    
     41000   1.0004866      0.44888399     20.514567      22.464134      4.6971414    
     41500   0.99406809     0.45558853     20.516265      22.462909      4.790364     
     42000   1.0029322      0.45616851     20.514076      22.474595      4.8516285    
     42500   0.99271278     0.45382718     20.521567      22.464417      4.7525728    
     43000   1.0013043      0.45680716     20.515615      22.474332      4.8049865    
     43500   0.99953503     0.45218259     20.522672      22.47411       4.7643314    
     44000   1.0009729      0.45072213     20.516649      22.468784      4.8495611    
     44500   0.99632731     0.45456095     20.516394      22.4654        4.7758085    
     45000   1.0028442      0.45158413     20.513841      22.469644      4.7684569    
     45500   0.99645603     0.45561211     20.513406      22.463655      4.807083     
     46000   0.99611125     0.44955254     20.504277      22.44795       4.8086864    
     46500   0.99429344     0.44974718     20.517527      22.458667      4.7489034    
     47000   0.99565919     0.4455509      20.512262      22.451255      4.678526     
     47500   0.99939724     0.45461665     20.512256      22.465922      4.7802705    
     48000   1.0055068      0.45438559     20.521365      22.483964      4.8445003    
     48500   1.0055574      0.44969173     20.518946      22.476927      4.8895903    
     49000   1.002475       0.45371752     20.513557      22.470941      4.80551      
     49500   1.0033814      0.4559866      20.521556      22.482568      4.8001579    
     50000   1.0095764      0.4501177      20.518933      22.483368      4.7448408    
Loop time of 95.8041 on 8 procs for 50000 steps with 32000 atoms

Performance: 541104.127 tau/day, 521.898 timesteps/s, 16.701 Matom-step/s
98.8% CPU use with 1 MPI tasks x 8 OpenMP threads

MPI task timing breakdown:
Section |  min time  |  avg time  |  max time  |%varavg| %total
---------------------------------------------------------------
Pair    | 0.83568    | 0.83568    | 0.83568    |   0.0 |  0.87
Bond    | 2.8427     | 2.8427     | 2.8427     |   0.0 |  2.97
Neigh   | 3.7263     | 3.7263     | 3.7263     |   0.0 |  3.89
Comm    | 22.252     | 22.252     | 22.252     |   0.0 | 23.23
Output  | 0.0045007  | 0.0045007  | 0.0045007  |   0.0 |  0.00
Modify  | 63.519     | 63.519     | 63.519     |   0.0 | 66.30
Other   |            | 2.624      |            |       |  2.74

Nlocal:          32000 ave       32000 max       32000 min
Histogram: 1 0 0 0 0 0 0 0 0 0
Nghost:           9524 ave        9524 max        9524 min
Histogram: 1 0 0 0 0 0 0 0 0 0
Neighs:         155808 ave      155808 max      155808 min
Histogram: 1 0 0 0 0 0 0 0 0 0

Total # of neighbors = 155808
Ave neighs/atom = 4.869
Ave special neighs/atom = 1.98
Neighbor list builds = 12552
Dangerous builds = 0
Total wall time: 0:02:21
