LAMMPS (30 Mar 2026)
KOKKOS mode with Kokkos version 5.1.99 is enabled
  using double precision
  using view layout = legacy
  will use up to 1 GPU(s) per node
  using 8 OpenMP thread(s) per MPI task
package kokkos
package kokkos gpu/aware on newton on neigh half
# FENE beadspring benchmark

units           lj
atom_style      bond
special_bonds   fene

read_data       input/data.chain
Reading data file ...
  orthogonal box = (-16.796 -16.796 -16.796) to (16.796 16.796 16.796)
  1 by 1 by 1 MPI processor grid
  reading atoms ...
  32000 atoms
  reading velocities ...
  32000 velocities
  scanning bonds ...
  1 = max bonds/atom
  orthogonal box = (-16.796 -16.796 -16.796) to (16.796 16.796 16.796)
  1 by 1 by 1 MPI processor grid
  reading bonds ...
  31680 bonds
Finding 1-2 1-3 1-4 neighbors ...
  special bond factors lj:    0        1        1       
  special bond factors coul:  0        1        1       
     2 = max # of 1-2 neighbors
     2 = max # of special neighbors
  special bonds CPU = 0.102 seconds
  read_data CPU = 2.490 seconds

neighbor        0.4 bin
neigh_modify    every 1 delay 1

bond_style      fene
bond_coeff      1 30.0 1.5 1.0 1.0

pair_style      lj/cut 1.12
pair_modify     shift yes
pair_coeff      1 1 1.0 1.0 1.12

fix             1 all nve
fix             2 all langevin 1.0 1.0 10.0 904297

fix             3 all imd 8887 version 3 unwrap off nowait off trate 5000 time off box off coordinates on velocities off forces off
Using fix imd with asynchronous I/O.

thermo          500
timestep        0.012

run             50000

CITE-CITE-CITE-CITE-CITE-CITE-CITE-CITE-CITE-CITE-CITE-CITE-CITE

Your simulation uses code contributions which should be cited:

- KOKKOS package: https://doi.org/10.1145/3731599.3767498

@inproceedings{Johansson25,
 author = {A. Johansson and E. Weinberg and C. Trott and M. McCarthy and S. Moore},
 title = {{LAMMPS-KOKKOS}: {P}erformance Portable Molecular Dynamics Across Exascale Architectures},
 year = 2025,
 booktitle = {Proceedings of the SC '25 Workshops of the International Conference for High Performance Computing,
  Networking, Storage and Analysis},
 pages = {1217–1232},
}

CITE-CITE-CITE-CITE-CITE-CITE-CITE-CITE-CITE-CITE-CITE-CITE-CITE

Generated 0 of 0 mixed pair_coeff terms from geometric mixing rule
WARNING: Communication cutoff 1.52 is shorter than a bond length based estimate of 1.855. This may lead to errors. (src/comm.cpp:694)
Neighbor list info ...
  update: every = 1 steps, delay = 1 steps, check = yes
  max neighbors/atom: 2000, page size: 100000
  master list distance cutoff = 1.52
  ghost atom cutoff = 1.52
  binsize = 1.52, bins = 23 23 23
  1 neighbor lists, perpetual/occasional/extra = 1 0 0
  (1) pair lj/cut/kk, perpetual
      attributes: half, newton on, kokkos_device
      pair build: half/bin/newton/kk/device
      stencil: half/bin/3d
      bin: kk/device
WARNING: Communication cutoff 1.52 is shorter than a bond length based estimate of 1.855. This may lead to errors. (src/comm.cpp:694)
Per MPI rank memory allocation (min/avg/max) = 29.98 | 29.98 | 29.98 Mbytes
   Step          Temp          E_pair         E_mol          TotEng         Press     
         0   0.97029772     0.44484087     20.494523      22.394765      4.6721833    
       500   0.98561235     0.44752833     20.508755      22.434656      4.8308275    
      1000   0.99313891     0.44687722     20.513941      22.45048       4.7113146    
      1500   1.0001385      0.44634082     20.518797      22.465299      4.8324842    
      2000   0.99630237     0.45178209     20.516701      22.46289       4.8249708    
      2500   0.99841271     0.45240572     20.518635      22.468613      4.8227183    
      3000   1.0023373      0.45698924     20.524491      22.484939      4.8371453    
      3500   1.0030801      0.45374559     20.513853      22.472172      4.8231293    
      4000   1.0002812      0.45308714     20.515434      22.468896      4.7680562    
      4500   1.0039721      0.45302463     20.516212      22.475148      4.76272      
      5000   1.0040353      0.45468908     20.514471      22.475166      4.787107     
      5500   1.0031373      0.45503821     20.51882       22.478517      4.7546576    
      6000   1.0023262      0.4557007      20.51177       22.470913      4.7921387    
      6500   1.0108674      0.45165558     20.519158      22.487067      4.7698061    
      7000   0.99806639     0.45889        20.511456      22.467399      4.7690563    
      7500   1.0096766      0.45013186     20.517452      22.482051      4.7866749    
      8000   0.9984716      0.45414363     20.522162      22.473967      4.7753636    
      8500   1.0046415      0.45389483     20.519472      22.480282      4.8279538    
      9000   1.0098959      0.45474646     20.518401      22.487944      4.7522714    
      9500   1.00915        0.4554431      20.513787      22.482908      4.875448     
     10000   1.0031991      0.46121525     20.5168        22.482766      4.912309     
     10500   1.0099219      0.4479676      20.517478      22.480282      4.7227139    
     11000   1.0006064      0.45135956     20.516661      22.468884      4.8815468    
     11500   1.004402       0.4585087      20.518313      22.483378      4.7338385    
     12000   1.0023168      0.45559381     20.513533      22.472555      4.811658     
     12500   1.0015293      0.45706594     20.512984      22.472297      4.8010386    
     13000   1.0048669      0.4516865      20.522441      22.481381      4.8039058    
     13500   1.006562       0.44987258     20.524564      22.484232      4.8176269    
     14000   0.99750759     0.44996592     20.513513      22.459694      4.7507512    
     14500   0.9882858      0.44960682     20.515176      22.447165      4.7723952    
     15000   0.99737808     0.45110283     20.506365      22.453488      4.7508822    
     15500   1.0019181      0.46006852     20.512541      22.47544       4.7676808    
     16000   0.99821004     0.44867704     20.521219      22.467164      4.7077916    
     16500   1.0030235      0.4516199      20.515932      22.47204       4.8101184    
     17000   1.0013194      0.45281778     20.513362      22.468111      4.7543741    
     17500   0.99849693     0.45886908     20.521118      22.477685      4.8482465    
     18000   0.99740089     0.45475966     20.513938      22.464753      4.8675283    
     18500   1.001721       0.44810723     20.512572      22.463214      4.7940393    
     19000   1.0034181      0.4581113      20.513742      22.476933      4.8858813    
     19500   1.0029299      0.45436598     20.519565      22.478279      4.8451522    
     20000   1.0014486      0.45318911     20.508194      22.463509      4.7578163    
     20500   0.99521175     0.46452925     20.514785      22.472086      4.8513735    
     21000   1.0076807      0.45091847     20.514094      22.476487      4.7229891    
     21500   1.0112105      0.44992337     20.51879       22.485482      4.8106219    
     22000   1.0037154      0.45882648     20.521609      22.485961      4.8005642    
     22500   1.0088029      0.45374923     20.5204        22.487307      4.797237     
     23000   1.0050066      0.45114162     20.506433      22.465037      4.8639845    
     23500   0.99483711     0.45460916     20.523855      22.470673      4.7975676    
     24000   0.99950599     0.45615988     20.512586      22.467958      4.871595     
     24500   0.99983857     0.45507031     20.519813      22.474594      4.7560603    
     25000   1.003425       0.44664693     20.52069       22.472428      4.8095091    
     25500   1.0082775      0.44833773     20.515673      22.47638       4.8499074    
     26000   1.0061203      0.45978393     20.52164       22.490558      4.8437146    
     26500   1.0061535      0.45691079     20.517868      22.483962      4.8325567    
     27000   1.0014166      0.45415366     20.52298       22.479211      4.8317096    
     27500   0.99525597     0.45303453     20.513391      22.459263      4.7461797    
     28000   0.99881264     0.45409327     20.518548      22.470813      4.8047586    
     28500   1.0021488      0.45391214     20.52013       22.477218      4.8459842    
     29000   1.0091718      0.45080262     20.515672      22.480185      4.859717     
     29500   1.0033994      0.44520426     20.520341      22.470597      4.8151658    
     30000   1.0013831      0.45116        20.518373      22.471561      4.6489306    
     30500   1.0028178      0.45164421     20.513218      22.469042      4.7611922    
     31000   0.99756844     0.45221904     20.512443      22.460968      4.7527114    
     31500   1.0118321      0.44469057     20.508549      22.47094       4.7072447    
     32000   1.0092955      0.4556926      20.507896      22.477485      4.8148977    
     32500   1.0051123      0.45046952     20.518196      22.476287      4.7622649    
     33000   1.0071189      0.453907       20.516889      22.481427      4.84414      
     33500   1.0037165      0.45097545     20.511374      22.467877      4.7308234    
     34000   1.0037489      0.45653471     20.514403      22.476514      4.8362144    
     34500   1.0052268      0.45454761     20.514147      22.476487      4.7759185    
     35000   1.0045782      0.45223271     20.519777      22.47883       4.8403018    
     35500   0.9973889      0.45733807     20.516333      22.469707      4.8030568    
     36000   1.0079584      0.45195756     20.510822      22.47467       4.7921978    
     36500   1.0020768      0.45094716     20.512886      22.466901      4.8630786    
     37000   1.0009857      0.45490741     20.512875      22.469214      4.8151276    
     37500   1.0005363      0.4640153      20.512946      22.477719      4.8400046    
     38000   1.0069476      0.45656178     20.516436      22.483372      4.8409231    
     38500   1.0049734      0.45444896     20.516832      22.478694      4.8214857    
     39000   1.0012967      0.45290839     20.512933      22.467739      4.7669919    
     39500   1.0013859      0.45332767     20.519947      22.475306      4.8500369    
     40000   1.0006506      0.45168243     20.514787      22.467399      4.7244559    
     40500   1.0012246      0.45692039     20.518767      22.477477      4.695553     
     41000   0.99987497     0.45583258     20.516567      22.472165      4.7403237    
     41500   0.99665118     0.46091959     20.516578      22.472428      4.8356782    
     42000   1.0053403      0.45154111     20.519514      22.479018      4.7647318    
     42500   0.99499418     0.45982499     20.514264      22.466533      4.8408674    
     43000   1.0030128      0.4484535      20.512284      22.46521       4.819771     
     43500   0.9964679      0.45452032     20.516349      22.465525      4.8044046    
     44000   1.007375       0.44956559     20.51473       22.475311      4.868308     
     44500   1.0076615      0.45953047     20.518187      22.489163      4.8477441    
     45000   0.9997534      0.45764082     20.512747      22.469971      4.8816862    
     45500   0.99502352     0.44794964     20.520729      22.461167      4.7424864    
     46000   1.0028507      0.45312244     20.509505      22.466856      4.7743157    
     46500   1.002133       0.45437643     20.515544      22.473073      4.6991647    
     47000   1.0056678      0.46006399     20.520849      22.489367      4.8921547    
     47500   1.0122165      0.45124519     20.508123      22.477645      4.7485827    
     48000   1.0015767      0.44922388     20.515863      22.467405      4.7591807    
     48500   0.98904675     0.45253228     20.514814      22.45087       4.8174988    
     49000   0.99401564     0.45473513     20.513012      22.458724      4.7765871    
     49500   1.0054886      0.45505007     20.506563      22.469799      4.7540693    
     50000   1.0006258      0.45254221     20.512674      22.466108      4.8238432    
Loop time of 33.3952 on 8 procs for 50000 steps with 32000 atoms

Performance: 1552317.194 tau/day, 1497.220 timesteps/s, 47.911 Matom-step/s
98.8% CPU use with 1 MPI tasks x 8 OpenMP threads

MPI task timing breakdown:
Section |  min time  |  avg time  |  max time  |%varavg| %total
---------------------------------------------------------------
Pair    | 0.79863    | 0.79863    | 0.79863    |   0.0 |  2.39
Bond    | 2.7979     | 2.7979     | 2.7979     |   0.0 |  8.38
Neigh   | 3.6382     | 3.6382     | 3.6382     |   0.0 | 10.89
Comm    | 21.894     | 21.894     | 21.894     |   0.0 | 65.56
Output  | 0.003781   | 0.003781   | 0.003781   |   0.0 |  0.01
Modify  | 1.6911     | 1.6911     | 1.6911     |   0.0 |  5.06
Other   |            | 2.571      |            |       |  7.70

Nlocal:          32000 ave       32000 max       32000 min
Histogram: 1 0 0 0 0 0 0 0 0 0
Nghost:           9510 ave        9510 max        9510 min
Histogram: 1 0 0 0 0 0 0 0 0 0
Neighs:         155680 ave      155680 max      155680 min
Histogram: 1 0 0 0 0 0 0 0 0 0

Total # of neighbors = 155680
Ave neighs/atom = 4.865
Ave special neighs/atom = 1.98
Neighbor list builds = 12557
Dangerous builds = 0
Total wall time: 0:01:18
