LAMMPS (30 Mar 2026)
KOKKOS mode with Kokkos version 5.1.99 is enabled
  using double precision
  using view layout = legacy
  will use up to 1 GPU(s) per node
  using 8 OpenMP thread(s) per MPI task
package kokkos
package kokkos gpu/aware on newton on neigh half
# FENE beadspring benchmark

units           lj
atom_style      bond
special_bonds   fene

read_data       input/data.chain
Reading data file ...
  orthogonal box = (-16.796 -16.796 -16.796) to (16.796 16.796 16.796)
  1 by 1 by 1 MPI processor grid
  reading atoms ...
  32000 atoms
  reading velocities ...
  32000 velocities
  scanning bonds ...
  1 = max bonds/atom
  orthogonal box = (-16.796 -16.796 -16.796) to (16.796 16.796 16.796)
  1 by 1 by 1 MPI processor grid
  reading bonds ...
  31680 bonds
Finding 1-2 1-3 1-4 neighbors ...
  special bond factors lj:    0        1        1       
  special bond factors coul:  0        1        1       
     2 = max # of 1-2 neighbors
     2 = max # of special neighbors
  special bonds CPU = 0.100 seconds
  read_data CPU = 2.470 seconds

neighbor        0.4 bin
neigh_modify    every 1 delay 1

bond_style      fene
bond_coeff      1 30.0 1.5 1.0 1.0

pair_style      lj/cut 1.12
pair_modify     shift yes
pair_coeff      1 1 1.0 1.0 1.12

fix             1 all nve
fix             2 all langevin 1.0 1.0 10.0 904297

fix             3 all imd 8887 version 3 unwrap off nowait off trate 50 time off box off coordinates on velocities on forces on
Using fix imd with asynchronous I/O.

thermo          500
timestep        0.012

run             50000

CITE-CITE-CITE-CITE-CITE-CITE-CITE-CITE-CITE-CITE-CITE-CITE-CITE

Your simulation uses code contributions which should be cited:

- KOKKOS package: https://doi.org/10.1145/3731599.3767498

@inproceedings{Johansson25,
 author = {A. Johansson and E. Weinberg and C. Trott and M. McCarthy and S. Moore},
 title = {{LAMMPS-KOKKOS}: {P}erformance Portable Molecular Dynamics Across Exascale Architectures},
 year = 2025,
 booktitle = {Proceedings of the SC '25 Workshops of the International Conference for High Performance Computing,
  Networking, Storage and Analysis},
 pages = {1217–1232},
}

CITE-CITE-CITE-CITE-CITE-CITE-CITE-CITE-CITE-CITE-CITE-CITE-CITE

Generated 0 of 0 mixed pair_coeff terms from geometric mixing rule
WARNING: Communication cutoff 1.52 is shorter than a bond length based estimate of 1.855. This may lead to errors. (src/comm.cpp:694)
Neighbor list info ...
  update: every = 1 steps, delay = 1 steps, check = yes
  max neighbors/atom: 2000, page size: 100000
  master list distance cutoff = 1.52
  ghost atom cutoff = 1.52
  binsize = 1.52, bins = 23 23 23
  1 neighbor lists, perpetual/occasional/extra = 1 0 0
  (1) pair lj/cut/kk, perpetual
      attributes: half, newton on, kokkos_device
      pair build: half/bin/newton/kk/device
      stencil: half/bin/3d
      bin: kk/device
WARNING: Communication cutoff 1.52 is shorter than a bond length based estimate of 1.855. This may lead to errors. (src/comm.cpp:694)
Per MPI rank memory allocation (min/avg/max) = 29.98 | 29.98 | 29.98 Mbytes
   Step          Temp          E_pair         E_mol          TotEng         Press     
         0   0.97029772     0.44484087     20.494523      22.394765      4.6721833    
       500   0.99106154     0.44797708     20.511762      22.446285      4.7430879    
      1000   0.99581626     0.45158291     20.516401      22.461661      4.7532687    
      1500   0.99591202     0.4475439      20.519098      22.460463      4.7497767    
      2000   0.99917698     0.45128658     20.506004      22.456009      4.780111     
      2500   1.0013818      0.44605985     20.515765      22.463851      4.6941801    
      3000   1.0074003      0.45627095     20.515358      22.482682      4.8587365    
      3500   0.99432518     0.44862708     20.51699       22.457058      4.7100774    
      4000   1.0026567      0.44713167     20.510351      22.46142       4.6955586    
      4500   0.99668381     0.45514373     20.515571      22.465694      4.8919386    
      5000   0.99940774     0.4513096      20.518459      22.468834      4.7535201    
      5500   1.0012055      0.45059146     20.51248       22.464833      4.7759238    
      6000   0.99736531     0.46129766     20.513939      22.471237      4.8058541    
      6500   0.9953411      0.45628573     20.51237       22.461621      4.6825004    
      7000   0.9972488      0.45415142     20.513787      22.463765      4.8624106    
      7500   0.99440936     0.45448504     20.515596      22.461648      4.8067985    
      8000   0.99473213     0.45293088     20.514933      22.459916      4.7892465    
      8500   1.0021447      0.453569       20.520288      22.477028      4.7861581    
      9000   0.99406867     0.45822436     20.521078      22.470359      4.7704764    
      9500   0.99448179     0.45694875     20.512924      22.461549      4.8007312    
     10000   0.99679983     0.45244012     20.52054       22.468133      4.8208061    
     10500   1.003746       0.44824336     20.518046      22.471861      4.7398479    
     11000   1.0019114      0.44993325     20.517627      22.47038       4.8183217    
     11500   0.99924563     0.45415855     20.516879      22.469859      4.8091593    
     12000   0.99476545     0.44816982     20.512347      22.452618      4.7760694    
     12500   0.99033559     0.45962977     20.518433      22.46352       4.8721068    
     13000   1.0071299      0.45229111     20.519137      22.482076      4.9099471    
     13500   1.0047168      0.45158351     20.518358      22.476969      4.8188362    
     14000   0.99875103     0.45366012     20.513637      22.465377      4.7614401    
     14500   0.99411071     0.452075       20.521602      22.464796      4.8073906    
     15000   0.99755992     0.45168743     20.512694      22.460674      4.8532259    
     15500   0.99616246     0.45053225     20.522444      22.467173      4.7948706    
     16000   1.0027477      0.45055319     20.511227      22.465855      4.8334875    
     16500   0.99081445     0.45193818     20.517512      22.455625      4.8021587    
     17000   1.0020215      0.45074979     20.514532      22.468267      4.7692588    
     17500   1.0009423      0.45208916     20.503869      22.457325      4.8290378    
     18000   0.98932814     0.44721916     20.514021      22.445186      4.7025298    
     18500   1.0051911      0.45080418     20.507026      22.465569      4.7222034    
     19000   1.0026985      0.44798133     20.518919      22.470901      4.7537306    
     19500   0.99326077     0.45824832     20.514613      22.462706      4.8218053    
     20000   1.0035459      0.45274499     20.509277      22.467294      4.7681274    
     20500   1.0023465      0.44944796     20.519463      22.472384      4.7470067    
     21000   0.99615465     0.45535563     20.511618      22.461159      4.8255613    
     21500   1.0039328      0.45625534     20.511363      22.47347       4.7293512    
     22000   0.99355741     0.45713812     20.516071      22.463499      4.8852787    
     22500   0.99271034     0.45868661     20.518584      22.46629       4.8038719    
     23000   0.99453641     0.45416383     20.517324      22.463246      4.787357     
     23500   1.0015346      0.46306947     20.514886      22.48021       4.8222249    
     24000   1.0028265      0.45401511     20.5063        22.464508      4.699582     
     24500   0.99706501     0.4495814      20.516671      22.461804      4.771182     
     25000   0.9998475      0.45150786     20.512668      22.4639        4.7907293    
     25500   1.0013317      0.45723713     20.518686      22.477874      4.7330881    
     26000   1.003093       0.45273109     20.513555      22.470879      4.8200595    
     26500   1.0028119      0.45222109     20.513027      22.469419      4.6891511    
     27000   0.99497671     0.45280877     20.512292      22.457519      4.7837946    
     27500   1.0020216      0.4555808      20.506601      22.465167      4.7980877    
     28000   0.9994939      0.45154254     20.511699      22.462436      4.792611     
     28500   0.99753732     0.46047835     20.51309       22.469827      4.788024     
     29000   0.9968911      0.45644177     20.517352      22.469084      4.6932286    
     29500   0.98900401     0.45746024     20.52374       22.46466       4.7740002    
     30000   0.99878298     0.45468292     20.513631      22.466442      4.8245791    
     30500   1.0017752      0.44999961     20.508311      22.460927      4.7683534    
     31000   1.0000653      0.4545599      20.517014      22.471625      4.7847064    
     31500   0.99643052     0.45073158     20.519877      22.465207      4.8015073    
     32000   0.99515145     0.45745433     20.518107      22.468242      4.7745801    
     32500   0.98916897     0.45428839     20.518411      22.456406      4.8034611    
     33000   0.99444852     0.45444137     20.522754      22.468821      4.8478313    
     33500   1.0003871      0.45662191     20.513568      22.470724      4.8436458    
     34000   1.0024001      0.45928346     20.509509      22.472346      4.7838641    
     34500   1.0038034      0.44887715     20.522195      22.47673       4.8368511    
     35000   0.9988422      0.4571419      20.516382      22.471741      4.8251383    
     35500   0.99019492     0.44982444     20.515167      22.450237      4.7905627    
     36000   0.98780529     0.45249766     20.509853      22.444013      4.7628097    
     36500   0.99781457     0.44945265     20.509943      22.456071      4.8602916    
     37000   0.9908763      0.45469826     20.518316      22.459282      4.835347     
     37500   0.9994229      0.45892984     20.511304      22.469321      4.8234361    
     38000   0.99398384     0.45410366     20.521443      22.466476      4.821817     
     38500   0.99893587     0.45706634     20.513037      22.46846       4.8828967    
     39000   0.99462104     0.45171447     20.509509      22.453108      4.7703464    
     39500   0.99763739     0.44548031     20.512785      22.454675      4.8729951    
     40000   1.0043632      0.4480911      20.514184      22.468773      4.815973     
     40500   1.0030968      0.45235897     20.514935      22.471892      4.7800364    
     41000   0.99697248     0.44991448     20.511956      22.457283      4.7676705    
     41500   1.0055601      0.45237656     20.516049      22.476719      4.7863921    
     42000   1.0028743      0.44779166     20.517583      22.469639      4.7238911    
     42500   1.004798       0.45116569     20.514294      22.47261       4.8017032    
     43000   0.99903415     0.45730112     20.516636      22.472442      4.7728314    
     43500   1.0009344      0.45209612     20.517201      22.470652      4.8262459    
     44000   0.99305085     0.45523331     20.517134      22.461897      4.786857     
     44500   1.0045664      0.45294957     20.514916      22.474669      4.7909195    
     45000   0.99827129     0.45197783     20.520032      22.46937       4.7609884    
     45500   1.0020176      0.44798883     20.517417      22.468385      4.7772788    
     46000   0.99758481     0.45465086     20.509953      22.460934      4.8245227    
     46500   1.0020499      0.45588895     20.510339      22.469255      4.7914202    
     47000   1.0066775      0.44142212     20.509223      22.460614      4.7067571    
     47500   1.0061509      0.4484042      20.513536      22.471119      4.738973     
     48000   1.0003409      0.45085205     20.519708      22.471025      4.7591228    
     48500   0.99812798     0.45537534     20.51309       22.46561       4.7727661    
     49000   0.99876032     0.45898764     20.513487      22.470568      4.7913922    
     49500   1.006933       0.45414563     20.517292      22.48179       4.7916903    
     50000   0.99540933     0.45717929     20.518269      22.468516      4.7909583    
Loop time of 38.0403 on 8 procs for 50000 steps with 32000 atoms

Performance: 1362763.719 tau/day, 1314.394 timesteps/s, 42.061 Matom-step/s
96.8% CPU use with 1 MPI tasks x 8 OpenMP threads

MPI task timing breakdown:
Section |  min time  |  avg time  |  max time  |%varavg| %total
---------------------------------------------------------------
Pair    | 0.81402    | 0.81402    | 0.81402    |   0.0 |  2.14
Bond    | 2.8604     | 2.8604     | 2.8604     |   0.0 |  7.52
Neigh   | 3.6743     | 3.6743     | 3.6743     |   0.0 |  9.66
Comm    | 22.691     | 22.691     | 22.691     |   0.0 | 59.65
Output  | 0.0060308  | 0.0060308  | 0.0060308  |   0.0 |  0.02
Modify  | 5.345      | 5.345      | 5.345      |   0.0 | 14.05
Other   |            | 2.65       |            |       |  6.97

Nlocal:          32000 ave       32000 max       32000 min
Histogram: 1 0 0 0 0 0 0 0 0 0
Nghost:           9461 ave        9461 max        9461 min
Histogram: 1 0 0 0 0 0 0 0 0 0
Neighs:         155619 ave      155619 max      155619 min
Histogram: 1 0 0 0 0 0 0 0 0 0

Total # of neighbors = 155619
Ave neighs/atom = 4.8630937
Ave special neighs/atom = 1.98
Neighbor list builds = 12550
Dangerous builds = 0
Total wall time: 0:01:23
