LAMMPS (30 Mar 2026)
KOKKOS mode with Kokkos version 5.1.99 is enabled
  using double precision
  using view layout = legacy
  will use up to 1 GPU(s) per node
  using 8 OpenMP thread(s) per MPI task
package kokkos
package kokkos gpu/aware on newton on neigh half
# FENE beadspring benchmark

units           lj
atom_style      bond
special_bonds   fene

read_data       input/data.chain
Reading data file ...
  orthogonal box = (-16.796 -16.796 -16.796) to (16.796 16.796 16.796)
  1 by 1 by 1 MPI processor grid
  reading atoms ...
  32000 atoms
  reading velocities ...
  32000 velocities
  scanning bonds ...
  1 = max bonds/atom
  orthogonal box = (-16.796 -16.796 -16.796) to (16.796 16.796 16.796)
  1 by 1 by 1 MPI processor grid
  reading bonds ...
  31680 bonds
Finding 1-2 1-3 1-4 neighbors ...
  special bond factors lj:    0        1        1       
  special bond factors coul:  0        1        1       
     2 = max # of 1-2 neighbors
     2 = max # of special neighbors
  special bonds CPU = 0.105 seconds
  read_data CPU = 2.464 seconds

neighbor        0.4 bin
neigh_modify    every 1 delay 1

bond_style      fene
bond_coeff      1 30.0 1.5 1.0 1.0

pair_style      lj/cut 1.12
pair_modify     shift yes
pair_coeff      1 1 1.0 1.0 1.12

fix             1 all nve
fix             2 all langevin 1.0 1.0 10.0 904297

fix             3 all imd 8887 version 3 unwrap off nowait off trate 500 time off box off coordinates on velocities on forces on
Using fix imd with asynchronous I/O.

thermo          500
timestep        0.012

run             50000

CITE-CITE-CITE-CITE-CITE-CITE-CITE-CITE-CITE-CITE-CITE-CITE-CITE

Your simulation uses code contributions which should be cited:

- KOKKOS package: https://doi.org/10.1145/3731599.3767498

@inproceedings{Johansson25,
 author = {A. Johansson and E. Weinberg and C. Trott and M. McCarthy and S. Moore},
 title = {{LAMMPS-KOKKOS}: {P}erformance Portable Molecular Dynamics Across Exascale Architectures},
 year = 2025,
 booktitle = {Proceedings of the SC '25 Workshops of the International Conference for High Performance Computing,
  Networking, Storage and Analysis},
 pages = {1217–1232},
}

CITE-CITE-CITE-CITE-CITE-CITE-CITE-CITE-CITE-CITE-CITE-CITE-CITE

Generated 0 of 0 mixed pair_coeff terms from geometric mixing rule
WARNING: Communication cutoff 1.52 is shorter than a bond length based estimate of 1.855. This may lead to errors. (src/comm.cpp:694)
Neighbor list info ...
  update: every = 1 steps, delay = 1 steps, check = yes
  max neighbors/atom: 2000, page size: 100000
  master list distance cutoff = 1.52
  ghost atom cutoff = 1.52
  binsize = 1.52, bins = 23 23 23
  1 neighbor lists, perpetual/occasional/extra = 1 0 0
  (1) pair lj/cut/kk, perpetual
      attributes: half, newton on, kokkos_device
      pair build: half/bin/newton/kk/device
      stencil: half/bin/3d
      bin: kk/device
WARNING: Communication cutoff 1.52 is shorter than a bond length based estimate of 1.855. This may lead to errors. (src/comm.cpp:694)
Per MPI rank memory allocation (min/avg/max) = 29.98 | 29.98 | 29.98 Mbytes
   Step          Temp          E_pair         E_mol          TotEng         Press     
         0   0.97029772     0.44484087     20.494523      22.394765      4.6721833    
       500   0.98782155     0.44122002     20.509347      22.432253      4.7238314    
      1000   0.9917793      0.45107854     20.516036      22.454737      4.6740565    
      1500   0.99225176     0.45165498     20.519092      22.459078      4.8357736    
      2000   1.0014689      0.45172269     20.515298      22.469177      4.7253535    
      2500   0.99780876     0.45396189     20.515564      22.466193      4.7962741    
      3000   1.0033435      0.46250037     20.513084      22.480553      4.8073571    
      3500   1.0027348      0.45860756     20.519921      22.482584      4.8246804    
      4000   1.0059066      0.45612204     20.520025      22.484959      4.8812698    
      4500   1.0036269      0.45623563     20.519773      22.481402      4.7879038    
      5000   1.0135126      0.44994809     20.521408      22.491577      4.8110327    
      5500   1.0036379      0.45971957     20.521737      22.486866      4.8163501    
      6000   1.0076633      0.4541199      20.517988      22.483556      4.787305     
      6500   1.0071525      0.45948782     20.523051      22.49322       4.8381556    
      7000   1.0075419      0.45353821     20.515323      22.480127      4.7539825    
      7500   1.0070936      0.45650722     20.524765      22.491866      4.8264851    
      8000   1.0069271      0.45385296     20.51462       22.478816      4.7925086    
      8500   1.0036397      0.45393915     20.511142      22.470494      4.7919186    
      9000   0.99758636     0.45785249     20.519143      22.473328      4.912543     
      9500   1.0011596      0.45869678     20.521453      22.481843      4.8622542    
     10000   1.0149085      0.45055688     20.522801      22.495673      4.8542629    
     10500   1.0056977      0.45707947     20.512478      22.478057      4.8131792    
     11000   0.99820467     0.45263277     20.520985      22.470878      4.7748672    
     11500   1.0019203      0.46143854     20.511484      22.475756      4.7827254    
     12000   0.99453768     0.45506814     20.518785      22.465613      4.810836     
     12500   0.99873682     0.45991855     20.517061      22.475038      4.8375356    
     13000   1.0068253      0.45390175     20.513805      22.477897      4.8900392    
     13500   1.0003695      0.46030302     20.521037      22.481847      4.7915428    
     14000   1.006476       0.46047878     20.510144      22.480289      4.754672     
     14500   1.0037638      0.45902494     20.520779      22.485402      4.8815834    
     15000   1.0094794      0.45932462     20.516115      22.489612      4.8101315    
     15500   1.0027924      0.45667843     20.513374      22.474194      4.8745795    
     16000   0.99547824     0.45852906     20.517896      22.469596      4.8636833    
     16500   1.0003673      0.44994034     20.518689      22.469133      4.8317974    
     17000   0.99848894     0.44493047     20.517532      22.460149      4.8140454    
     17500   1.0082286      0.4425142      20.514379      22.469189      4.7966641    
     18000   0.99530501     0.45393132     20.514718      22.46156       4.8286565    
     18500   0.99252059     0.45695703     20.520504      22.466195      4.7554454    
     19000   0.99394017     0.44871236     20.518403      22.457979      4.7575303    
     19500   1.0071109      0.44480715     20.518869      22.474295      4.7673138    
     20000   1.0005116      0.45177867     20.525944      22.478443      4.8006493    
     20500   1.0032145      0.45344907     20.510715      22.468939      4.7811076    
     21000   1.0116333      0.4587858      20.511152      22.487341      4.7757489    
     21500   1.0066869      0.45479901     20.515488      22.48027       4.7913775    
     22000   0.99614351     0.4551494      20.52387       22.473188      4.8423714    
     22500   1.0084606      0.45600619     20.522566      22.491216      4.7547408    
     23000   1.0068257      0.44919381     20.518076      22.477461      4.7539461    
     23500   1.0054659      0.46176545     20.518685      22.488602      4.7811945    
     24000   0.99961381     0.45935101     20.5128        22.471525      4.7383507    
     24500   0.99395598     0.4574556      20.510042      22.458385      4.7405079    
     25000   0.99820069     0.45059969     20.51205       22.459904      4.7558462    
     25500   0.99543898     0.45598223     20.510484      22.459578      4.8424271    
     26000   0.99676616     0.46063237     20.516316      22.47205       4.8409109    
     26500   0.9987333      0.45366967     20.521825      22.473548      4.7568508    
     27000   1.0036734      0.45490141     20.517231      22.477595      4.8022952    
     27500   1.0010363      0.45642075     20.517211      22.475139      4.7893925    
     28000   1.0014996      0.45812994     20.519873      22.480205      4.8820898    
     28500   0.99643283     0.46088673     20.520968      22.476457      4.854708     
     29000   1.0054054      0.45273235     20.514061      22.474854      4.8635637    
     29500   1.0102088      0.45051597     20.50778       22.473562      4.7467224    
     30000   1.0082079      0.45676646     20.508608      22.477639      4.8018747    
     30500   0.99884314     0.45478582     20.522168      22.475172      4.7563547    
     31000   0.99372716     0.45018516     20.513346      22.454075      4.8311073    
     31500   0.99616769     0.45354532     20.521714      22.469464      4.8243557    
     32000   0.99989294     0.45301714     20.518424      22.471234      4.8241016    
     32500   1.0032534      0.45512353     20.517543      22.4775        4.7564957    
     33000   0.99994584     0.45701594     20.516659      22.473547      4.795402     
     33500   1.0004958      0.45873346     20.516853      22.476283      4.7938739    
     34000   1.0016067      0.45630624     20.515186      22.473855      4.835579     
     34500   1.0043218      0.45462244     20.519528      22.480586      4.773206     
     35000   1.0036141      0.45953234     20.517244      22.48215       4.7671648    
     35500   1.0037016      0.45669373     20.522205      22.484404      4.8782439    
     36000   1.0128684      0.45785679     20.508698      22.48581       4.7939127    
     36500   1.0043626      0.45701025     20.512537      22.476044      4.825076     
     37000   1.0004789      0.45200547     20.517372      22.470049      4.8351715    
     37500   0.99655862     0.45792032     20.519602      22.472314      4.7477155    
     38000   0.9978849      0.4559402      20.512643      22.465364      4.7776185    
     38500   1.0010148      0.45478288     20.512535      22.468793      4.8622707    
     39000   1.0062599      0.45263874     20.520365      22.482346      4.8145221    
     39500   1.0017839      0.45437753     20.521244      22.478251      4.7942279    
     40000   1.0034688      0.45463091     20.52018       22.479967      4.8283371    
     40500   1.0012926      0.45894399     20.513175      22.474011      4.8223931    
     41000   0.99585713     0.44775555     20.519664      22.461158      4.7609689    
     41500   0.99886681     0.45576153     20.512607      22.466622      4.798776     
     42000   1.0028368      0.4517253      20.516652      22.472586      4.8276735    
     42500   1.0045137      0.45170739     20.517659      22.476089      4.834365     
     43000   1.0072905      0.45417268     20.517182      22.482243      4.8441616    
     43500   1.0048856      0.45162393     20.511851      22.470756      4.8288826    
     44000   1.0021484      0.45820978     20.5167        22.478085      4.8003289    
     44500   1.0059286      0.45133962     20.518294      22.47848       4.8156452    
     45000   1.0035993      0.45582394     20.512417      22.473593      4.8538803    
     45500   0.99610883     0.45329596     20.515584      22.462996      4.8383525    
     46000   1.0089586      0.44983856     20.51777       22.480999      4.8059132    
     46500   0.99973276     0.45239092     20.516489      22.468432      4.7854749    
     47000   1.0050025      0.45188646     20.51698       22.476324      4.7348025    
     47500   0.99644151     0.45148938     20.517986      22.464091      4.7630899    
     48000   1.0048832      0.45145268     20.509493      22.468223      4.7538633    
     48500   1.000404       0.45198327     20.516826      22.469368      4.7929935    
     49000   1.0047509      0.45475296     20.519043      22.480875      4.8023604    
     49500   1.0017787      0.46201757     20.525446      22.490085      4.8821483    
     50000   1.0036825      0.45468917     20.519307      22.479473      4.8422401    
Loop time of 33.7405 on 8 procs for 50000 steps with 32000 atoms

Performance: 1536432.349 tau/day, 1481.898 timesteps/s, 47.421 Matom-step/s
98.8% CPU use with 1 MPI tasks x 8 OpenMP threads

MPI task timing breakdown:
Section |  min time  |  avg time  |  max time  |%varavg| %total
---------------------------------------------------------------
Pair    | 0.79117    | 0.79117    | 0.79117    |   0.0 |  2.34
Bond    | 2.7833     | 2.7833     | 2.7833     |   0.0 |  8.25
Neigh   | 3.6646     | 3.6646     | 3.6646     |   0.0 | 10.86
Comm    | 22         | 22         | 22         |   0.0 | 65.20
Output  | 0.004241   | 0.004241   | 0.004241   |   0.0 |  0.01
Modify  | 1.9854     | 1.9854     | 1.9854     |   0.0 |  5.88
Other   |            | 2.512      |            |       |  7.44

Nlocal:          32000 ave       32000 max       32000 min
Histogram: 1 0 0 0 0 0 0 0 0 0
Nghost:           9422 ave        9422 max        9422 min
Histogram: 1 0 0 0 0 0 0 0 0 0
Neighs:         155483 ave      155483 max      155483 min
Histogram: 1 0 0 0 0 0 0 0 0 0

Total # of neighbors = 155483
Ave neighs/atom = 4.8588438
Ave special neighs/atom = 1.98
Neighbor list builds = 12547
Dangerous builds = 0
Total wall time: 0:01:18
