LAMMPS (30 Mar 2026)
KOKKOS mode with Kokkos version 5.1.99 is enabled
  using double precision
  using view layout = legacy
  will use up to 1 GPU(s) per node
  using 8 OpenMP thread(s) per MPI task
package kokkos
package kokkos gpu/aware on newton on neigh half
# FENE beadspring benchmark

units           lj
atom_style      bond
special_bonds   fene

read_data       input/data.chain
Reading data file ...
  orthogonal box = (-16.796 -16.796 -16.796) to (16.796 16.796 16.796)
  1 by 1 by 1 MPI processor grid
  reading atoms ...
  32000 atoms
  reading velocities ...
  32000 velocities
  scanning bonds ...
  1 = max bonds/atom
  orthogonal box = (-16.796 -16.796 -16.796) to (16.796 16.796 16.796)
  1 by 1 by 1 MPI processor grid
  reading bonds ...
  31680 bonds
Finding 1-2 1-3 1-4 neighbors ...
  special bond factors lj:    0        1        1       
  special bond factors coul:  0        1        1       
     2 = max # of 1-2 neighbors
     2 = max # of special neighbors
  special bonds CPU = 0.098 seconds
  read_data CPU = 2.459 seconds

neighbor        0.4 bin
neigh_modify    every 1 delay 1

bond_style      fene
bond_coeff      1 30.0 1.5 1.0 1.0

pair_style      lj/cut 1.12
pair_modify     shift yes
pair_coeff      1 1 1.0 1.0 1.12

fix             1 all nve
fix             2 all langevin 1.0 1.0 10.0 904297

fix             3 all imd 8887 version 3 unwrap off nowait off trate 5000 time off box off coordinates on velocities on forces on
Using fix imd with asynchronous I/O.

thermo          500
timestep        0.012

run             50000

CITE-CITE-CITE-CITE-CITE-CITE-CITE-CITE-CITE-CITE-CITE-CITE-CITE

Your simulation uses code contributions which should be cited:

- KOKKOS package: https://doi.org/10.1145/3731599.3767498

@inproceedings{Johansson25,
 author = {A. Johansson and E. Weinberg and C. Trott and M. McCarthy and S. Moore},
 title = {{LAMMPS-KOKKOS}: {P}erformance Portable Molecular Dynamics Across Exascale Architectures},
 year = 2025,
 booktitle = {Proceedings of the SC '25 Workshops of the International Conference for High Performance Computing,
  Networking, Storage and Analysis},
 pages = {1217–1232},
}

CITE-CITE-CITE-CITE-CITE-CITE-CITE-CITE-CITE-CITE-CITE-CITE-CITE

Generated 0 of 0 mixed pair_coeff terms from geometric mixing rule
WARNING: Communication cutoff 1.52 is shorter than a bond length based estimate of 1.855. This may lead to errors. (src/comm.cpp:694)
Neighbor list info ...
  update: every = 1 steps, delay = 1 steps, check = yes
  max neighbors/atom: 2000, page size: 100000
  master list distance cutoff = 1.52
  ghost atom cutoff = 1.52
  binsize = 1.52, bins = 23 23 23
  1 neighbor lists, perpetual/occasional/extra = 1 0 0
  (1) pair lj/cut/kk, perpetual
      attributes: half, newton on, kokkos_device
      pair build: half/bin/newton/kk/device
      stencil: half/bin/3d
      bin: kk/device
WARNING: Communication cutoff 1.52 is shorter than a bond length based estimate of 1.855. This may lead to errors. (src/comm.cpp:694)
Per MPI rank memory allocation (min/avg/max) = 29.98 | 29.98 | 29.98 Mbytes
   Step          Temp          E_pair         E_mol          TotEng         Press     
         0   0.97029772     0.44484087     20.494523      22.394765      4.6721833    
       500   0.98561357     0.4475286      20.508755      22.434658      4.8307635    
      1000   0.99169533     0.44978758     20.512026      22.44931       4.7793903    
      1500   0.99734533     0.45255226     20.513175      22.461698      4.8372814    
      2000   1.0013073      0.45135962     20.503941      22.457215      4.7863229    
      2500   0.99631235     0.45551472     20.526808      22.476744      4.7347975    
      3000   1.0000797      0.45332111     20.516073      22.469466      4.8200769    
      3500   1.0060399      0.45741045     20.513115      22.479538      4.8591949    
      4000   1.0032478      0.45440849     20.513576      22.472809      4.7040641    
      4500   1.0046655      0.45734179     20.515423      22.479716      4.8020398    
      5000   0.99777925     0.45372895     20.519033      22.469384      4.79421      
      5500   1.0040538      0.45525216     20.517612      22.478897      4.859623     
      6000   1.0026861      0.45083842     20.516992      22.471813      4.7547108    
      6500   0.99665731     0.45370755     20.516485      22.465132      4.7419926    
      7000   0.99922548     0.451995       20.50695       22.457737      4.7809743    
      7500   0.99149032     0.44967532     20.511901      22.448765      4.7044215    
      8000   0.99689995     0.45502736     20.509455      22.459786      4.8165438    
      8500   0.99589584     0.45251509     20.509709      22.456021      4.7904209    
      9000   0.99552893     0.44646859     20.519283      22.458998      4.6753997    
      9500   1.0019416      0.45687737     20.519226      22.478969      4.7704797    
     10000   1.0005111      0.45491726     20.518877      22.474514      4.7601213    
     10500   1.0071925      0.46054672     20.515758      22.487046      4.8741359    
     11000   0.99794459     0.46035026     20.515413      22.472633      4.8171073    
     11500   1.0009224      0.45160025     20.510352      22.463289      4.8095404    
     12000   0.99761928     0.45338423     20.516516      22.466283      4.8117176    
     12500   0.99857674     0.45219827     20.513768      22.463784      4.8017359    
     13000   1.0075138      0.4479995      20.513388      22.472611      4.7719086    
     13500   0.99688059     0.45238429     20.523521      22.471179      4.7333526    
     14000   1.0001507      0.45517883     20.518732      22.474091      4.7870068    
     14500   1.0033784      0.45934598     20.511978      22.476344      4.8518954    
     15000   1.0003808      0.45093803     20.511083      22.462545      4.7402588    
     15500   0.99804587     0.45270064     20.515709      22.465432      4.7300552    
     16000   1.005914       0.44790985     20.51369       22.470424      4.7325096    
     16500   1.0032952      0.44846792     20.512646      22.466009      4.7799725    
     17000   1.0007058      0.45152497     20.51281       22.465347      4.8275627    
     17500   1.0020359      0.45811373     20.512536      22.473657      4.8790723    
     18000   1.0050728      0.45594851     20.513621      22.477131      4.7583543    
     18500   1.010674       0.44907631     20.516545      22.481585      4.7263519    
     19000   1.002968       0.45921446     20.520841      22.484461      4.7716274    
     19500   1.0092021      0.45663332     20.524796      22.495185      4.7823749    
     20000   1.0037176      0.45176875     20.515939      22.473238      4.808472     
     20500   1.0056585      0.44948787     20.516685      22.474613      4.8599977    
     21000   1.0056845      0.4535957      20.512046      22.474121      4.92189      
     21500   0.99891195     0.44978895     20.512833      22.460943      4.7464266    
     22000   1.0020512      0.45077157     20.517641      22.471443      4.9031355    
     22500   1.0014447      0.46128765     20.511553      22.474961      4.7880931    
     23000   1.0016454      0.44877156     20.517273      22.468466      4.7837367    
     23500   0.99701157     0.44978474     20.518672      22.463927      4.7398522    
     24000   1.003446       0.45253426     20.519779      22.477436      4.7315605    
     24500   1.006681       0.45635909     20.512063      22.478397      4.7790576    
     25000   1.0034754      0.45801604     20.517707      22.48089       4.8033678    
     25500   1.0057836      0.45744739     20.511276      22.477352      4.7193303    
     26000   1.0012907      0.45329931     20.513406      22.468595      4.7942074    
     26500   1.0021299      0.45127819     20.515718      22.470145      4.753589     
     27000   1.0021164      0.45535055     20.509616      22.468095      4.776216     
     27500   0.99247673     0.45183761     20.508561      22.449067      4.8101612    
     28000   0.99904552     0.45603874     20.519364      22.473924      4.7921031    
     28500   0.99871588     0.44985087     20.511766      22.459644      4.8021113    
     29000   0.99845546     0.4513426      20.51581       22.464789      4.7777478    
     29500   1.0082643      0.45641911     20.513988      22.482756      4.7932832    
     30000   1.0073216      0.45457057     20.526725      22.492231      4.7060556    
     30500   1.0060009      0.45086177     20.517825      22.47764       4.8890361    
     31000   1.0053897      0.45969921     20.519477      22.487214      4.7801415    
     31500   1.0128831      0.4640385      20.521572      22.504888      4.8608036    
     32000   1.0007834      0.45599575     20.520579      22.477703      4.8066597    
     32500   0.99388768     0.45184408     20.512334      22.454963      4.7636987    
     33000   0.99469453     0.45625246     20.513129      22.461377      4.8694851    
     33500   0.99877615     0.45425425     20.515615      22.467986      4.8549064    
     34000   1.0062351      0.45488982     20.514778      22.478973      4.7412043    
     34500   0.99811633     0.45237551     20.51669       22.466193      4.8116792    
     35000   0.9931394      0.4510581      20.513831      22.454552      4.6967449    
     35500   0.99431433     0.44916491     20.512941      22.45353       4.7508515    
     36000   0.99811181     0.45144076     20.515523      22.464085      4.8243591    
     36500   0.99345859     0.44987651     20.518742      22.458759      4.775171     
     37000   0.99912242     0.45341112     20.512155      22.464203      4.7353223    
     37500   1.0023809      0.45137615     20.51703       22.471931      4.8103361    
     38000   0.9991424      0.45965358     20.518113      22.476433      4.7645475    
     38500   1.005956       0.45240754     20.511122      22.472416      4.7533835    
     39000   0.9997795      0.4545921      20.516652      22.470867      4.7908923    
     39500   1.0066836      0.44862873     20.513063      22.47167       4.7273239    
     40000   1.0059818      0.45800077     20.516067      22.482993      4.8222927    
     40500   1.005135       0.45243644     20.514678      22.47477       4.7784834    
     41000   1.0019101      0.45069317     20.513421      22.466932      4.7192119    
     41500   1.0040514      0.45647217     20.51047       22.472973      4.7800674    
     42000   1.0025865      0.44908651     20.522989      22.475909      4.8410059    
     42500   0.99552802     0.45471169     20.515067      22.463024      4.7427056    
     43000   1.0000638      0.45752766     20.519399      22.476976      4.8274045    
     43500   1.0052715      0.45848164     20.517088      22.48343       4.8370506    
     44000   1.0076999      0.44968625     20.524981      22.48617       4.8224616    
     44500   0.99940222     0.45136314     20.51759       22.46801       4.7839829    
     45000   0.9967681      0.45195175     20.507894      22.454951      4.750676     
     45500   0.9919528      0.45045039     20.513455      22.451788      4.7959463    
     46000   0.99298783     0.45371406     20.514902      22.458051      4.7930436    
     46500   1.0067472      0.44747481     20.516268      22.473817      4.828982     
     47000   0.99805608     0.45818438     20.515095      22.470317      4.8311768    
     47500   0.99631345     0.45310909     20.516021      22.463553      4.7809007    
     48000   1.0000911      0.45152944     20.519918      22.471537      4.8510673    
     48500   0.99669631     0.45824723     20.517014      22.470259      4.8182454    
     49000   0.99691373     0.45376747     20.519268      22.468359      4.7738431    
     49500   0.99326446     0.46169888     20.516668      22.468217      4.7734852    
     50000   0.99415987     0.45374512     20.51546       22.460399      4.8095366    
Loop time of 33.2323 on 8 procs for 50000 steps with 32000 atoms

Performance: 1559929.275 tau/day, 1504.561 timesteps/s, 48.146 Matom-step/s
98.8% CPU use with 1 MPI tasks x 8 OpenMP threads

MPI task timing breakdown:
Section |  min time  |  avg time  |  max time  |%varavg| %total
---------------------------------------------------------------
Pair    | 0.79875    | 0.79875    | 0.79875    |   0.0 |  2.40
Bond    | 2.7868     | 2.7868     | 2.7868     |   0.0 |  8.39
Neigh   | 3.6887     | 3.6887     | 3.6887     |   0.0 | 11.10
Comm    | 21.724     | 21.724     | 21.724     |   0.0 | 65.37
Output  | 0.0046886  | 0.0046886  | 0.0046886  |   0.0 |  0.01
Modify  | 1.6734     | 1.6734     | 1.6734     |   0.0 |  5.04
Other   |            | 2.556      |            |       |  7.69

Nlocal:          32000 ave       32000 max       32000 min
Histogram: 1 0 0 0 0 0 0 0 0 0
Nghost:           9590 ave        9590 max        9590 min
Histogram: 1 0 0 0 0 0 0 0 0 0
Neighs:         155945 ave      155945 max      155945 min
Histogram: 1 0 0 0 0 0 0 0 0 0

Total # of neighbors = 155945
Ave neighs/atom = 4.8732812
Ave special neighs/atom = 1.98
Neighbor list builds = 12545
Dangerous builds = 0
Total wall time: 0:01:18
