LAMMPS (30 Mar 2026)
KOKKOS mode with Kokkos version 5.1.99 is enabled
  using double precision
  using view layout = legacy
  will use up to 1 GPU(s) per node
  using 8 OpenMP thread(s) per MPI task
package kokkos
package kokkos gpu/aware on newton on neigh half
# FENE beadspring benchmark

units           lj
atom_style      bond
special_bonds   fene

read_data       input/data.chain
Reading data file ...
  orthogonal box = (-16.796 -16.796 -16.796) to (16.796 16.796 16.796)
  1 by 1 by 1 MPI processor grid
  reading atoms ...
  32000 atoms
  reading velocities ...
  32000 velocities
  scanning bonds ...
  1 = max bonds/atom
  orthogonal box = (-16.796 -16.796 -16.796) to (16.796 16.796 16.796)
  1 by 1 by 1 MPI processor grid
  reading bonds ...
  31680 bonds
Finding 1-2 1-3 1-4 neighbors ...
  special bond factors lj:    0        1        1       
  special bond factors coul:  0        1        1       
     2 = max # of 1-2 neighbors
     2 = max # of special neighbors
  special bonds CPU = 0.102 seconds
  read_data CPU = 2.489 seconds

neighbor        0.4 bin
neigh_modify    every 1 delay 1

bond_style      fene
bond_coeff      1 30.0 1.5 1.0 1.0

pair_style      lj/cut 1.12
pair_modify     shift yes
pair_coeff      1 1 1.0 1.0 1.12

fix             1 all nve
fix             2 all langevin 1.0 1.0 10.0 904297

fix             3 all imd 8887 version 3 unwrap off nowait off trate 5 time off box off coordinates on velocities off forces off
Using fix imd with asynchronous I/O.

thermo          500
timestep        0.012

run             50000

CITE-CITE-CITE-CITE-CITE-CITE-CITE-CITE-CITE-CITE-CITE-CITE-CITE

Your simulation uses code contributions which should be cited:

- KOKKOS package: https://doi.org/10.1145/3731599.3767498

@inproceedings{Johansson25,
 author = {A. Johansson and E. Weinberg and C. Trott and M. McCarthy and S. Moore},
 title = {{LAMMPS-KOKKOS}: {P}erformance Portable Molecular Dynamics Across Exascale Architectures},
 year = 2025,
 booktitle = {Proceedings of the SC '25 Workshops of the International Conference for High Performance Computing,
  Networking, Storage and Analysis},
 pages = {1217–1232},
}

CITE-CITE-CITE-CITE-CITE-CITE-CITE-CITE-CITE-CITE-CITE-CITE-CITE

Generated 0 of 0 mixed pair_coeff terms from geometric mixing rule
WARNING: Communication cutoff 1.52 is shorter than a bond length based estimate of 1.855. This may lead to errors. (src/comm.cpp:694)
Neighbor list info ...
  update: every = 1 steps, delay = 1 steps, check = yes
  max neighbors/atom: 2000, page size: 100000
  master list distance cutoff = 1.52
  ghost atom cutoff = 1.52
  binsize = 1.52, bins = 23 23 23
  1 neighbor lists, perpetual/occasional/extra = 1 0 0
  (1) pair lj/cut/kk, perpetual
      attributes: half, newton on, kokkos_device
      pair build: half/bin/newton/kk/device
      stencil: half/bin/3d
      bin: kk/device
WARNING: Communication cutoff 1.52 is shorter than a bond length based estimate of 1.855. This may lead to errors. (src/comm.cpp:694)
Per MPI rank memory allocation (min/avg/max) = 29.98 | 29.98 | 29.98 Mbytes
   Step          Temp          E_pair         E_mol          TotEng         Press     
         0   0.97029772     0.44484087     20.494523      22.394765      4.6721833    
       500   0.98580149     0.44668075     20.502071      22.427408      4.7324591    
      1000   0.98962495     0.45427617     20.518726      22.457393      4.7896407    
      1500   0.99225699     0.45166389     20.518542      22.458545      4.7791007    
      2000   0.99014382     0.45202151     20.514807      22.451998      4.7071459    
      2500   1.0034865      0.44796521     20.52162       22.474768      4.715789     
      3000   1.0023605      0.45642787     20.506743      22.466665      4.6736268    
      3500   0.99740235     0.45211702     20.512787      22.46096       4.777464     
      4000   0.99761085     0.45686427     20.514287      22.467521      4.8321497    
      4500   1.0002113      0.45167115     20.517773      22.469715      4.765058     
      5000   1.0066479      0.45050128     20.523242      22.483668      4.7490462    
      5500   1.0032795      0.45409437     20.516906      22.475872      4.7869758    
      6000   0.99321756     0.45832267     20.521145      22.469248      4.7630411    
      6500   1.0043062      0.45100305     20.515118      22.472533      4.7578535    
      7000   1.0074645      0.44866477     20.518964      22.478778      4.8357269    
      7500   0.99856443     0.45694433     20.509002      22.463747      4.8057183    
      8000   0.99320562     0.46117701     20.517493      22.468432      4.8408877    
      8500   1.0000412      0.44774859     20.513759      22.461523      4.7054855    
      9000   0.99421823     0.45311724     20.51598       22.460378      4.8206038    
      9500   0.99539494     0.45090873     20.518943      22.462897      4.801532     
     10000   0.99675677     0.45195397     20.520754      22.467796      4.7342029    
     10500   1.0086935      0.45542173     20.516302      22.484717      4.7911712    
     11000   1.004731       0.45339794     20.513956      22.474403      4.7478239    
     11500   1.0018539      0.45846032     20.515527      22.476721      4.8223241    
     12000   1.0014531      0.45597968     20.5115        22.469612      4.7424747    
     12500   1.0019244      0.45334507     20.511414      22.467599      4.7858646    
     13000   0.99840767     0.45781834     20.520779      22.476162      4.8300656    
     13500   1.0015992      0.45525885     20.520026      22.477637      4.8486958    
     14000   0.99948763     0.45011194     20.520785      22.470082      4.7588698    
     14500   1.0018609      0.4523198      20.51281       22.467875      4.8221114    
     15000   0.99681995     0.45575485     20.520008      22.470946      4.8019265    
     15500   1.000311       0.4540496      20.515634      22.470103      4.7760735    
     16000   1.0023768      0.45874732     20.515487      22.477752      4.8140227    
     16500   0.99791442     0.45606864     20.510753      22.463647      4.854803     
     17000   0.99409038     0.44667246     20.515921      22.453683      4.8119878    
     17500   0.99934335     0.45199576     20.520127      22.471091      4.7774442    
     18000   1.0032731      0.45207965     20.515201      22.472143      4.7346151    
     18500   1.0018969      0.4618867      20.511535      22.47622       4.7161357    
     19000   1.0059372      0.45094727     20.519492      22.479298      4.8472536    
     19500   1.0059994      0.45813727     20.515188      22.482278      4.7535209    
     20000   0.99787602     0.45491769     20.520817      22.472501      4.777486     
     20500   1.0075096      0.44374051     20.514127      22.469084      4.807184     
     21000   1.0009927      0.4551773      20.515093      22.471712      4.7722373    
     21500   1.0082431      0.45617525     20.506735      22.475227      4.8542982    
     22000   1.001572       0.45383336     20.520657      22.476802      4.7689715    
     22500   1.0104801      0.45383832     20.516059      22.48557       4.8429008    
     23000   0.99830116     0.45686252     20.51611       22.470377      4.8570401    
     23500   0.99863141     0.4521906      20.518035      22.468126      4.8078362    
     24000   1.0008555      0.45162058     20.513286      22.466143      4.7908337    
     24500   0.99767229     0.45609355     20.518909      22.471464      4.7547173    
     25000   0.99393092     0.45037682     20.510377      22.451604      4.7870195    
     25500   0.99565542     0.45405098     20.514609      22.462097      4.7829661    
     26000   1.0040929      0.4602314      20.511962      22.478285      4.8120859    
     26500   1.0019591      0.45700035     20.520057      22.479949      4.7582215    
     27000   1.0056502      0.45132901     20.51944       22.479197      4.7855129    
     27500   1.0022946      0.46042862     20.521591      22.485414      4.7985345    
     28000   1.0080764      0.45897102     20.518185      22.489224      4.8576349    
     28500   1.0001055      0.45588036     20.516403      22.472395      4.8584567    
     29000   1.0044438      0.45392824     20.518217      22.478763      4.7449376    
     29500   1.0013366      0.45642995     20.516241      22.474629      4.7728416    
     30000   1.001687       0.45232299     20.51416       22.468966      4.7136158    
     30500   1.0027011      0.45151547     20.515821      22.471341      4.8646836    
     31000   1.0050066      0.44974194     20.510366      22.467571      4.8161985    
     31500   1.0063643      0.44432741     20.523149      22.476976      4.8277798    
     32000   1.001572       0.45981682     20.511627      22.473755      4.7650809    
     32500   1.0025504      0.45744271     20.519472      22.480693      4.7460277    
     33000   1.0057224      0.44884744     20.514432      22.471816      4.8261269    
     33500   1.0029631      0.46339343     20.515561      22.483352      4.8422686    
     34000   0.99840589     0.45427739     20.515731      22.467571      4.8361413    
     34500   1.0032393      0.45044586     20.514557      22.469815      4.7898824    
     35000   0.99531577     0.46252135     20.520901      22.476349      4.807765     
     35500   1.0054111      0.45411704     20.517697      22.479883      4.8589344    
     36000   0.99641331     0.45340647     20.523936      22.471915      4.791994     
     36500   0.99864055     0.45489801     20.526501      22.479313      4.8765982    
     37000   0.99994215     0.45488817     20.515721      22.470475      4.8232275    
     37500   1.0000368      0.45594966     20.514942      22.4709        4.8795757    
     38000   0.99864434     0.45524278     20.518861      22.472023      4.8080484    
     38500   1.00036        0.45451665     20.518299      22.473309      4.8581537    
     39000   0.9980817      0.45423727     20.518399      22.469712      4.7978741    
     39500   1.0012984      0.46050453     20.520472      22.482877      4.9065635    
     40000   0.99970316     0.4528001      20.515815      22.468123      4.8441419    
     40500   0.99939895     0.45342491     20.512929      22.465405      4.7781126    
     41000   1.0018494      0.45381948     20.515475      22.472022      4.8288479    
     41500   0.99917285     0.4586278      20.522604      22.479944      4.7842311    
     42000   1.0024269      0.44628287     20.515213      22.465089      4.7714839    
     42500   0.99606562     0.45375943     20.514002      22.461813      4.8566832    
     43000   1.0005458      0.45106974     20.512861      22.464703      4.7715408    
     43500   0.99609421     0.45832519     20.519409      22.471829      4.9268172    
     44000   1.0093311      0.45375865     20.514774      22.482482      4.8345568    
     44500   1.0055244      0.46335449     20.519713      22.491307      4.8663975    
     45000   1.012284       0.45709736     20.517309      22.492785      4.7630185    
     45500   1.0150435      0.45550091     20.515587      22.493606      4.666701     
     46000   1.0036942      0.45681697     20.512718      22.47503       4.8086489    
     46500   0.99607786     0.46269624     20.504664      22.46143       4.8346807    
     47000   1.0090026      0.45256441     20.516824      22.482845      4.745282     
     47500   1.0002802      0.45364775     20.511622      22.465643      4.7442458    
     48000   1.0026239      0.45010748     20.517328      22.471324      4.7114275    
     48500   1.010088       0.46031838     20.505044      22.480447      4.8425888    
     49000   0.9951594      0.45765837     20.513809      22.46416       4.7636973    
     49500   1.0035072      0.45076421     20.509711      22.465689      4.7302826    
     50000   1.0003672      0.45130445     20.513117      22.464925      4.7971238    
Loop time of 47.6349 on 8 procs for 50000 steps with 32000 atoms

Performance: 1088278.413 tau/day, 1049.651 timesteps/s, 33.589 Matom-step/s
98.5% CPU use with 1 MPI tasks x 8 OpenMP threads

MPI task timing breakdown:
Section |  min time  |  avg time  |  max time  |%varavg| %total
---------------------------------------------------------------
Pair    | 0.83246    | 0.83246    | 0.83246    |   0.0 |  1.75
Bond    | 2.8695     | 2.8695     | 2.8695     |   0.0 |  6.02
Neigh   | 3.7493     | 3.7493     | 3.7493     |   0.0 |  7.87
Comm    | 22.479     | 22.479     | 22.479     |   0.0 | 47.19
Output  | 0.0043677  | 0.0043677  | 0.0043677  |   0.0 |  0.01
Modify  | 15.067     | 15.067     | 15.067     |   0.0 | 31.63
Other   |            | 2.634      |            |       |  5.53

Nlocal:          32000 ave       32000 max       32000 min
Histogram: 1 0 0 0 0 0 0 0 0 0
Nghost:           9498 ave        9498 max        9498 min
Histogram: 1 0 0 0 0 0 0 0 0 0
Neighs:         155705 ave      155705 max      155705 min
Histogram: 1 0 0 0 0 0 0 0 0 0

Total # of neighbors = 155705
Ave neighs/atom = 4.8657813
Ave special neighs/atom = 1.98
Neighbor list builds = 12548
Dangerous builds = 0
Total wall time: 0:01:33
