LAMMPS (30 Mar 2026)
KOKKOS mode with Kokkos version 5.1.99 is enabled
  using double precision
  using view layout = legacy
  will use up to 1 GPU(s) per node
  using 8 OpenMP thread(s) per MPI task
package kokkos
package kokkos newton on neigh half
# FENE beadspring benchmark

units           lj
atom_style      bond
special_bonds   fene

read_data       input/data.chain
Reading data file ...
  orthogonal box = (-16.796 -16.796 -16.796) to (16.796 16.796 16.796)
  1 by 1 by 1 MPI processor grid
  reading atoms ...
  32000 atoms
  reading velocities ...
  32000 velocities
  scanning bonds ...
  1 = max bonds/atom
  orthogonal box = (-16.796 -16.796 -16.796) to (16.796 16.796 16.796)
  1 by 1 by 1 MPI processor grid
  reading bonds ...
  31680 bonds
Finding 1-2 1-3 1-4 neighbors ...
  special bond factors lj:    0        1        1       
  special bond factors coul:  0        1        1       
     2 = max # of 1-2 neighbors
     2 = max # of special neighbors
  special bonds CPU = 0.028 seconds
  read_data CPU = 1.324 seconds

neighbor        0.4 bin
neigh_modify    every 1 delay 1

bond_style      fene
bond_coeff      1 30.0 1.5 1.0 1.0

pair_style      lj/cut 1.12
pair_modify     shift yes
pair_coeff      1 1 1.0 1.0 1.12

fix             1 all nve
fix             2 all langevin 1.0 1.0 10.0 904297

thermo          500
timestep        0.012

run             50000

CITE-CITE-CITE-CITE-CITE-CITE-CITE-CITE-CITE-CITE-CITE-CITE-CITE

Your simulation uses code contributions which should be cited:

- KOKKOS package: https://doi.org/10.1145/3731599.3767498

@inproceedings{Johansson25,
 author = {A. Johansson and E. Weinberg and C. Trott and M. McCarthy and S. Moore},
 title = {{LAMMPS-KOKKOS}: {P}erformance Portable Molecular Dynamics Across Exascale Architectures},
 year = 2025,
 booktitle = {Proceedings of the SC '25 Workshops of the International Conference for High Performance Computing,
  Networking, Storage and Analysis},
 pages = {1217–1232},
}

CITE-CITE-CITE-CITE-CITE-CITE-CITE-CITE-CITE-CITE-CITE-CITE-CITE

Generated 0 of 0 mixed pair_coeff terms from geometric mixing rule
WARNING: Communication cutoff 1.52 is shorter than a bond length based estimate of 1.855. This may lead to errors. (src/comm.cpp:694)
Neighbor list info ...
  update: every = 1 steps, delay = 1 steps, check = yes
  max neighbors/atom: 2000, page size: 100000
  master list distance cutoff = 1.52
  ghost atom cutoff = 1.52
  binsize = 1.52, bins = 23 23 23
  1 neighbor lists, perpetual/occasional/extra = 1 0 0
  (1) pair lj/cut/kk, perpetual
      attributes: half, newton on, kokkos_device
      pair build: half/bin/newton/kk/device
      stencil: half/bin/3d
      bin: kk/device
WARNING: Communication cutoff 1.52 is shorter than a bond length based estimate of 1.855. This may lead to errors. (src/comm.cpp:694)
Per MPI rank memory allocation (min/avg/max) = 21.68 | 21.68 | 21.68 Mbytes
   Step          Temp          E_pair         E_mol          TotEng         Press     
         0   0.97029772     0.44484087     20.494523      22.394765      4.6721833    
       500   0.98229119     0.44746763     20.504923      22.425782      4.7529584    
      1000   0.99582575     0.4486384      20.510829      22.453159      4.7197133    
      1500   0.99671546     0.45158785     20.517437      22.464052      4.6701044    
      2000   1.002161       0.45549477     20.516177      22.474866      4.8940085    
      2500   0.99383742     0.45669055     20.52077       22.46817       4.7320931    
      3000   1.0038837      0.4524432      20.511483      22.469704      4.7707831    
      3500   1.0020151      0.45242008     20.514549      22.469945      4.751231     
      4000   1.005909       0.45361661     20.524054      22.486487      4.7718258    
      4500   1.0102666      0.46274944     20.523048      22.50115       4.9274664    
      5000   1.0042818      0.45965665     20.52193       22.487962      4.9295904    
      5500   1.0016174      0.45864936     20.51513       22.476159      4.8480735    
      6000   0.99820975     0.45594001     20.517989      22.471197      4.7863563    
      6500   1.0032747      0.44997435     20.518457      22.473297      4.8435686    
      7000   1.0144555      0.45103089     20.509133      22.4818        4.8462871    
      7500   0.99953885     0.45372075     20.513439      22.466421      4.812322     
      8000   0.99122095     0.45749254     20.516309      22.460586      4.8215452    
      8500   0.99819289     0.45195734     20.51091       22.46011       4.7561591    
      9000   0.99452868     0.45090018     20.504095      22.446741      4.7475641    
      9500   0.99619003     0.45567295     20.519706      22.469618      4.8422451    
     10000   1.0012568      0.44972412     20.514425      22.465987      4.7135788    
     10500   0.99713253     0.45051461     20.512389      22.458555      4.7902555    
     11000   0.99959437     0.44876924     20.517863      22.465977      4.7879845    
     11500   1.0100043      0.46163719     20.513906      22.490502      4.7753754    
     12000   1.0017174      0.45735849     20.52303       22.482918      4.8388625    
     12500   1.0051569      0.45073309     20.513825      22.472246      4.8227541    
     13000   1.0055387      0.45901645     20.519418      22.486695      4.8527399    
     13500   1.0021133      0.4616297      20.520691      22.485444      4.7954125    
     14000   1.0040961      0.45391714     20.522999      22.483014      4.8337732    
     14500   1.0074007      0.44988692     20.518035      22.478976      4.7439613    
     15000   1.003806       0.45317023     20.515414      22.474247      4.7395594    
     15500   1.0005495      0.44986845     20.517349      22.467995      4.8713189    
     16000   1.0000313      0.45729092     20.520528      22.477819      4.8063743    
     16500   1.0036758      0.45842253     20.512303      22.476192      4.7647879    
     17000   0.999779       0.45084308     20.513901      22.464365      4.7893408    
     17500   1.0025087      0.4473766      20.526718      22.47781       4.7594809    
     18000   0.99969211     0.45226141     20.514695      22.466448      4.7719397    
     18500   0.99582009     0.44970683     20.517332      22.460722      4.7172979    
     19000   1.0053544      0.45505072     20.513425      22.476461      4.7586574    
     19500   1.0035015      0.44900965     20.510459      22.464673      4.8800296    
     20000   0.99718404     0.45244318     20.512169      22.460342      4.8147018    
     20500   0.99266711     0.45322338     20.515582      22.45776       4.8010322    
     21000   1.0036549      0.45672104     20.513639      22.475795      4.8315611    
     21500   1.0007323      0.45716388     20.521034      22.47925       4.7774757    
     22000   1.0092287      0.45861185     20.517856      22.490263      4.8204802    
     22500   1.0016714      0.44857373     20.522836      22.47387       4.7410976    
     23000   1.0081415      0.44942112     20.515287      22.476873      4.752544     
     23500   1.0023332      0.45204555     20.516831      22.47233       4.8272319    
     24000   1.0003468      0.45264785     20.51497       22.468091      4.8109488    
     24500   0.99952097     0.45713152     20.519231      22.475597      4.7921747    
     25000   0.99845372     0.45448653     20.513962      22.466082      4.7322463    
     25500   0.99818837     0.45394163     20.522528      22.473705      4.7724494    
     26000   1.0011737      0.45375417     20.515285      22.470753      4.8227054    
     26500   0.99868541     0.45253974     20.515485      22.466006      4.7899287    
     27000   0.99552471     0.4494009      20.510839      22.45348       4.7391111    
     27500   0.99716354     0.44943118     20.515116      22.460245      4.7885615    
     28000   0.99523555     0.45170015     20.509698      22.454204      4.7761357    
     28500   0.99508226     0.45452676     20.510265      22.457369      4.7721562    
     29000   0.99897381     0.45256469     20.516547      22.467526      4.7758967    
     29500   1.002672       0.45137767     20.522233      22.477572      4.7682535    
     30000   0.99885206     0.45515972     20.514748      22.468139      4.7876857    
     30500   0.99061313     0.45267981     20.518095      22.456648      4.7705971    
     31000   0.98896172     0.44957151     20.512715      22.445683      4.7432972    
     31500   0.99672807     0.45350304     20.51428       22.462829      4.7871966    
     32000   1.0015085      0.45454799     20.513319      22.470083      4.7840358    
     32500   0.99746164     0.44754043     20.512317      22.456004      4.7708956    
     33000   0.99798384     0.4548635      20.519496      22.471288      4.7883683    
     33500   1.0012284      0.45306568     20.517227      22.472088      4.688834     
     34000   1.001448       0.45394384     20.518774      22.474843      4.7421772    
     34500   0.99537694     0.45884247     20.518765      22.470627      4.9009514    
     35000   0.99956353     0.45421056     20.510739      22.464248      4.7933218    
     35500   1.0047708      0.45667882     20.514869      22.478657      4.8390207    
     36000   1.0094243      0.45675988     20.514408      22.485257      4.8700558    
     36500   1.009951       0.45755433     20.517657      22.49009       4.8628105    
     37000   1.0081896      0.46002603     20.515994      22.488257      4.8513377    
     37500   1.0127976      0.45187163     20.511747      22.482767      4.8248408    
     38000   1.0070404      0.45296583     20.516012      22.479492      4.78397      
     38500   1.0009845      0.46100867     20.51836       22.480799      4.8186141    
     39000   1.008494       0.45131578     20.517072      22.481081      4.8414989    
     39500   0.99917334     0.45374844     20.522216      22.474677      4.8012689    
     40000   1.0065104      0.45443232     20.51703       22.481181      4.8400892    
     40500   1.0076933      0.45703804     20.511039      22.47957       4.907814     
     41000   1.0054492      0.45952259     20.514339      22.481988      4.8094873    
     41500   1.0045811      0.45210285     20.515647      22.474575      4.7323811    
     42000   0.99572605     0.45580991     20.520008      22.46936       4.8103822    
     42500   1.0030127      0.45402571     20.519582      22.478079      4.7445849    
     43000   1.0008183      0.45215838     20.516515      22.469854      4.8081083    
     43500   1.0030286      0.45455305     20.512673      22.471722      4.775897     
     44000   1.0027973      0.44926128     20.516537      22.469947      4.7854922    
     44500   1.001658       0.45350007     20.519943      22.475883      4.7954124    
     45000   1.0072109      0.45393606     20.52313       22.487835      4.855578     
     45500   1.0013767      0.45231384     20.514531      22.468863      4.7779143    
     46000   1.0077895      0.45486228     20.513537      22.480036      4.8166161    
     46500   0.99595575     0.45631139     20.51224       22.462439      4.7564058    
     47000   1.0041732      0.45902021     20.51385       22.479083      4.7693341    
     47500   1.005518       0.4532998      20.519847      22.481377      4.739884     
     48000   1.0062162      0.4552173      20.514598      22.479092      4.8559103    
     48500   1.0142095      0.45150521     20.516321      22.489093      4.8872573    
     49000   1.0003836      0.46016304     20.511912      22.472603      4.7398351    
     49500   1.0010752      0.46032579     20.514248      22.47614       4.7929934    
     50000   1.0069343      0.44547304     20.516433      22.47226       4.826189     
Loop time of 30.12 on 8 procs for 50000 steps with 32000 atoms

Performance: 1721113.656 tau/day, 1660.025 timesteps/s, 53.121 Matom-step/s
101.2% CPU use with 1 MPI tasks x 8 OpenMP threads

MPI task timing breakdown:
Section |  min time  |  avg time  |  max time  |%varavg| %total
---------------------------------------------------------------
Pair    | 0.79806    | 0.79806    | 0.79806    |   0.0 |  2.65
Bond    | 2.7315     | 2.7315     | 2.7315     |   0.0 |  9.07
Neigh   | 3.4471     | 3.4471     | 3.4471     |   0.0 | 11.44
Comm    | 19.513     | 19.513     | 19.513     |   0.0 | 64.79
Output  | 0.0037773  | 0.0037773  | 0.0037773  |   0.0 |  0.01
Modify  | 1.0675     | 1.0675     | 1.0675     |   0.0 |  3.54
Other   |            | 2.559      |            |       |  8.49

Nlocal:          32000 ave       32000 max       32000 min
Histogram: 1 0 0 0 0 0 0 0 0 0
Nghost:           9453 ave        9453 max        9453 min
Histogram: 1 0 0 0 0 0 0 0 0 0
Neighs:         155770 ave      155770 max      155770 min
Histogram: 1 0 0 0 0 0 0 0 0 0

Total # of neighbors = 155770
Ave neighs/atom = 4.8678125
Ave special neighs/atom = 1.98
Neighbor list builds = 12548
Dangerous builds = 0
Total wall time: 0:00:31
