LAMMPS (30 Mar 2026)
KOKKOS mode with Kokkos version 5.1.99 is enabled
  using double precision
  using view layout = legacy
  will use up to 1 GPU(s) per node
  using 8 OpenMP thread(s) per MPI task
package kokkos
package kokkos gpu/aware on newton on neigh half
# FENE beadspring benchmark

units           lj
atom_style      bond
special_bonds   fene

read_data       input/data.chain
Reading data file ...
  orthogonal box = (-16.796 -16.796 -16.796) to (16.796 16.796 16.796)
  1 by 1 by 1 MPI processor grid
  reading atoms ...
  32000 atoms
  reading velocities ...
  32000 velocities
  scanning bonds ...
  1 = max bonds/atom
  orthogonal box = (-16.796 -16.796 -16.796) to (16.796 16.796 16.796)
  1 by 1 by 1 MPI processor grid
  reading bonds ...
  31680 bonds
Finding 1-2 1-3 1-4 neighbors ...
  special bond factors lj:    0        1        1       
  special bond factors coul:  0        1        1       
     2 = max # of 1-2 neighbors
     2 = max # of special neighbors
  special bonds CPU = 0.103 seconds
  read_data CPU = 2.474 seconds

neighbor        0.4 bin
neigh_modify    every 1 delay 1

bond_style      fene
bond_coeff      1 30.0 1.5 1.0 1.0

pair_style      lj/cut 1.12
pair_modify     shift yes
pair_coeff      1 1 1.0 1.0 1.12

fix             1 all nve
fix             2 all langevin 1.0 1.0 10.0 904297

fix             3 all imd 8887 version 3 unwrap off nowait off trate 5 time off box off coordinates on velocities on forces on
Using fix imd with asynchronous I/O.

thermo          500
timestep        0.012

run             50000

CITE-CITE-CITE-CITE-CITE-CITE-CITE-CITE-CITE-CITE-CITE-CITE-CITE

Your simulation uses code contributions which should be cited:

- KOKKOS package: https://doi.org/10.1145/3731599.3767498

@inproceedings{Johansson25,
 author = {A. Johansson and E. Weinberg and C. Trott and M. McCarthy and S. Moore},
 title = {{LAMMPS-KOKKOS}: {P}erformance Portable Molecular Dynamics Across Exascale Architectures},
 year = 2025,
 booktitle = {Proceedings of the SC '25 Workshops of the International Conference for High Performance Computing,
  Networking, Storage and Analysis},
 pages = {1217–1232},
}

CITE-CITE-CITE-CITE-CITE-CITE-CITE-CITE-CITE-CITE-CITE-CITE-CITE

Generated 0 of 0 mixed pair_coeff terms from geometric mixing rule
WARNING: Communication cutoff 1.52 is shorter than a bond length based estimate of 1.855. This may lead to errors. (src/comm.cpp:694)
Neighbor list info ...
  update: every = 1 steps, delay = 1 steps, check = yes
  max neighbors/atom: 2000, page size: 100000
  master list distance cutoff = 1.52
  ghost atom cutoff = 1.52
  binsize = 1.52, bins = 23 23 23
  1 neighbor lists, perpetual/occasional/extra = 1 0 0
  (1) pair lj/cut/kk, perpetual
      attributes: half, newton on, kokkos_device
      pair build: half/bin/newton/kk/device
      stencil: half/bin/3d
      bin: kk/device
WARNING: Communication cutoff 1.52 is shorter than a bond length based estimate of 1.855. This may lead to errors. (src/comm.cpp:694)
Per MPI rank memory allocation (min/avg/max) = 29.98 | 29.98 | 29.98 Mbytes
   Step          Temp          E_pair         E_mol          TotEng         Press     
         0   0.97029772     0.44484087     20.494523      22.394765      4.6721833    
       500   0.98782178     0.44122        20.509347      22.432253      4.7238288    
      1000   0.98583392     0.44773702     20.509394      22.435836      4.7442415    
      1500   0.99649069     0.4475456      20.514865      22.4571        4.8017813    
      2000   1.0003175      0.45270904     20.508432      22.461571      4.7777157    
      2500   1.0034836      0.45284556     20.512332      22.470356      4.7299748    
      3000   1.0010565      0.45175274     20.513813      22.467104      4.8668051    
      3500   0.99963578     0.45622755     20.519636      22.47527       4.8814891    
      4000   1.0063386      0.4540957      20.510677      22.474233      4.8232397    
      4500   1.0024699      0.45238912     20.511881      22.467928      4.7547159    
      5000   0.99647463     0.46348213     20.515726      22.473873      4.8987623    
      5500   1.0058251      0.45563522     20.517664      22.48199       4.8474492    
      6000   1.0090919      0.45039396     20.516839      22.480823      4.8490979    
      6500   1.0052125      0.45888032     20.517094      22.483746      4.8513916    
      7000   0.99755987     0.45793932     20.519919      22.474151      4.7864348    
      7500   1.0106956      0.44845278     20.512088      22.476537      4.7222204    
      8000   0.99803408     0.45869527     20.512752      22.468451      4.8778699    
      8500   0.99990089     0.45930917     20.514702      22.473815      4.8140768    
      9000   1.0060611      0.44897703     20.518945      22.476967      4.7548865    
      9500   1.0004843      0.45290569     20.520884      22.474469      4.8181107    
     10000   1.007368       0.45416428     20.516469      22.481638      4.8316818    
     10500   1.001841       0.45823309     20.51415       22.475098      4.7751884    
     11000   0.99951552     0.45417162     20.514387      22.467785      4.7312681    
     11500   0.99853176     0.45218793     20.51892       22.468859      4.7022439    
     12000   1.0050199      0.44532949     20.508092      22.460904      4.7275298    
     12500   0.99815809     0.45373357     20.515161      22.466085      4.7697156    
     13000   0.99262256     0.45128121     20.511666      22.451834      4.8057161    
     13500   1.0007955      0.4506351      20.519562      22.471343      4.8100776    
     14000   1.0011664      0.44928812     20.510862      22.461853      4.670675     
     14500   0.99645183     0.45798262     20.511219      22.463832      4.810392     
     15000   1.0043679      0.44727227     20.516589      22.470366      4.7525417    
     15500   0.9979991      0.45712439     20.519276      22.473352      4.8224912    
     16000   1.0039774      0.45645565     20.515223      22.477598      4.7823291    
     16500   1.0045857      0.45080427     20.516651      22.474287      4.8362231    
     17000   1.0055974      0.45721782     20.518223      22.48379       4.787389     
     17500   1.0044726      0.45261918     20.516042      22.475323      4.8149535    
     18000   0.99843211     0.45160368     20.515926      22.465131      4.7026938    
     18500   0.99945289     0.44751896     20.51292       22.459571      4.8020355    
     19000   0.99632181     0.45077226     20.515405      22.460614      4.873141     
     19500   1.003733       0.44921816     20.516256      22.471026      4.8247917    
     20000   1.0021524      0.45634096     20.512381      22.471904      4.7723773    
     20500   1.0015693      0.45267599     20.51658       22.471563      4.7809576    
     21000   0.9987771      0.45115146     20.52001       22.46928       4.7599562    
     21500   0.998589       0.45066609     20.516882      22.465385      4.7769547    
     22000   0.99736884     0.45527059     20.511851      22.463129      4.8373957    
     22500   0.99760916     0.45444171     20.516337      22.467146      4.7665575    
     23000   0.99941515     0.45218963     20.517834      22.4691        4.7760007    
     23500   1.0069646      0.45524931     20.516444      22.482093      4.8281793    
     24000   1.0042312      0.45033704     20.517665      22.474301      4.7570697    
     24500   1.0050869      0.45695065     20.520879      22.485413      4.9410068    
     25000   1.0046359      0.45762821     20.516905      22.48144       4.7130567    
     25500   1.0052295      0.45088514     20.515654      22.474336      4.8240988    
     26000   0.99835289     0.45401473     20.517626      22.469123      4.7434901    
     26500   1.0038655      0.45393623     20.516833      22.47652       4.7675035    
     27000   1.001112       0.44665829     20.51376       22.46204       4.7606151    
     27500   0.99722465     0.44558391     20.516989      22.458363      4.7581357    
     28000   0.99490015     0.4561659      20.515192      22.463661      4.7777946    
     28500   0.99230378     0.45685096     20.515078      22.460339      4.9067932    
     29000   0.99590332     0.45442839     20.517284      22.46552       4.7199151    
     29500   1.0017566      0.44954773     20.514414      22.466549      4.7781858    
     30000   0.99602488     0.45404258     20.512206      22.460239      4.7573421    
     30500   0.99447853     0.44954124     20.520241      22.461453      4.7869472    
     31000   1.0034075      0.45443154     20.513012      22.472507      4.8352179    
     31500   0.99970219     0.45235257     20.517943      22.469802      4.7557491    
     32000   1.0045552      0.45697615     20.516538      22.4803        4.7548127    
     32500   1.0073399      0.4530493      20.517812      22.481824      4.804079     
     33000   1.0096386      0.45556474     20.517513      22.487488      4.836338     
     33500   0.99976795     0.45149332     20.516441      22.46754       4.8361181    
     34000   0.99653501     0.45818414     20.515777      22.468717      4.8563367    
     34500   0.99794236     0.45290831     20.513633      22.463408      4.7602272    
     35000   1.0039624      0.45037184     20.515557      22.471825      4.8261946    
     35500   0.9941858      0.45540072     20.516478      22.463111      4.8027273    
     36000   1.0052983      0.45347385     20.514104      22.475478      4.7543792    
     36500   0.99784533     0.4547499      20.51746       22.468931      4.7977526    
     37000   0.99001189     0.454875       20.510512      22.450359      4.8615809    
     37500   0.9996571      0.44728912     20.513258      22.459986      4.8000815    
     38000   0.9985213      0.46215807     20.514857      22.47475       4.8890031    
     38500   0.99751873     0.46115226     20.518625      22.476009      4.747817     
     39000   1.0092593      0.45762525     20.516549      22.488016      4.7882498    
     39500   1.0008429      0.45668851     20.523961      22.481867      4.8067733    
     40000   1.0042568      0.46021746     20.52226       22.488815      4.9217953    
     40500   1.0068209      0.45720592     20.517297      22.484687      4.7240831    
     41000   1.0021487      0.45445408     20.51784       22.47547       4.8617614    
     41500   1.0099997      0.45171483     20.518497      22.485164      4.776149     
     42000   1.0007582      0.45334638     20.523339      22.477776      4.7789109    
     42500   1.0010266      0.45058927     20.518586      22.470669      4.8147107    
     43000   1.0060582      0.44709545     20.520873      22.477008      4.7127054    
     43500   1.0015932      0.4584955      20.523421      22.484259      4.8787002    
     44000   1.0075428      0.45900531     20.518249      22.488521      4.7804375    
     44500   1.0069917      0.45325436     20.512869      22.476563      4.7956041    
     45000   1.0069391      0.45575439     20.519678      22.485794      4.7843291    
     45500   1.0030367      0.45664394     20.521069      22.482221      4.7600552    
     46000   1.0012909      0.44881409     20.520403      22.471106      4.7708374    
     46500   1.0017318      0.45739318     20.518667      22.478611      4.8037685    
     47000   1.0037071      0.45592285     20.518103      22.47954       4.8222629    
     47500   1.0012848      0.46111031     20.516144      22.479134      4.7955086    
     48000   1.0087801      0.4587867      20.515946      22.487855      4.8534806    
     48500   1.0072397      0.45290961     20.518404      22.482126      4.8429003    
     49000   1.0075183      0.4556873      20.524112      22.49103       4.8680782    
     49500   0.99974777     0.45328402     20.521611      22.47447       4.7895116    
     50000   1.0061759      0.4554368      20.519593      22.484247      4.8121081    
Loop time of 69.8931 on 8 procs for 50000 steps with 32000 atoms

Performance: 741704.303 tau/day, 715.378 timesteps/s, 22.892 Matom-step/s
97.1% CPU use with 1 MPI tasks x 8 OpenMP threads

MPI task timing breakdown:
Section |  min time  |  avg time  |  max time  |%varavg| %total
---------------------------------------------------------------
Pair    | 0.84525    | 0.84525    | 0.84525    |   0.0 |  1.21
Bond    | 2.8938     | 2.8938     | 2.8938     |   0.0 |  4.14
Neigh   | 3.7766     | 3.7766     | 3.7766     |   0.0 |  5.40
Comm    | 22.504     | 22.504     | 22.504     |   0.0 | 32.20
Output  | 0.0045184  | 0.0045184  | 0.0045184  |   0.0 |  0.01
Modify  | 37.227     | 37.227     | 37.227     |   0.0 | 53.26
Other   |            | 2.642      |            |       |  3.78

Nlocal:          32000 ave       32000 max       32000 min
Histogram: 1 0 0 0 0 0 0 0 0 0
Nghost:           9432 ave        9432 max        9432 min
Histogram: 1 0 0 0 0 0 0 0 0 0
Neighs:         155636 ave      155636 max      155636 min
Histogram: 1 0 0 0 0 0 0 0 0 0

Total # of neighbors = 155636
Ave neighs/atom = 4.863625
Ave special neighs/atom = 1.98
Neighbor list builds = 12554
Dangerous builds = 0
Total wall time: 0:01:55
