LAMMPS (30 Mar 2026)
KOKKOS mode with Kokkos version 5.1.99 is enabled
  using double precision
  using view layout = legacy
  will use up to 1 GPU(s) per node
  using 8 OpenMP thread(s) per MPI task
package kokkos
package kokkos gpu/aware on newton on neigh half
# FENE beadspring benchmark

units           lj
atom_style      bond
special_bonds   fene

read_data       input/data.chain
Reading data file ...
  orthogonal box = (-16.796 -16.796 -16.796) to (16.796 16.796 16.796)
  1 by 1 by 1 MPI processor grid
  reading atoms ...
  32000 atoms
  reading velocities ...
  32000 velocities
  scanning bonds ...
  1 = max bonds/atom
  orthogonal box = (-16.796 -16.796 -16.796) to (16.796 16.796 16.796)
  1 by 1 by 1 MPI processor grid
  reading bonds ...
  31680 bonds
Finding 1-2 1-3 1-4 neighbors ...
  special bond factors lj:    0        1        1       
  special bond factors coul:  0        1        1       
     2 = max # of 1-2 neighbors
     2 = max # of special neighbors
  special bonds CPU = 0.100 seconds
  read_data CPU = 2.482 seconds

neighbor        0.4 bin
neigh_modify    every 1 delay 1

bond_style      fene
bond_coeff      1 30.0 1.5 1.0 1.0

pair_style      lj/cut 1.12
pair_modify     shift yes
pair_coeff      1 1 1.0 1.0 1.12

fix             1 all nve
fix             2 all langevin 1.0 1.0 10.0 904297

fix             3 all imd 8887 version 3 unwrap off nowait off trate 50 time off box off coordinates on velocities off forces off
Using fix imd with asynchronous I/O.

thermo          500
timestep        0.012

run             50000

CITE-CITE-CITE-CITE-CITE-CITE-CITE-CITE-CITE-CITE-CITE-CITE-CITE

Your simulation uses code contributions which should be cited:

- KOKKOS package: https://doi.org/10.1145/3731599.3767498

@inproceedings{Johansson25,
 author = {A. Johansson and E. Weinberg and C. Trott and M. McCarthy and S. Moore},
 title = {{LAMMPS-KOKKOS}: {P}erformance Portable Molecular Dynamics Across Exascale Architectures},
 year = 2025,
 booktitle = {Proceedings of the SC '25 Workshops of the International Conference for High Performance Computing,
  Networking, Storage and Analysis},
 pages = {1217–1232},
}

CITE-CITE-CITE-CITE-CITE-CITE-CITE-CITE-CITE-CITE-CITE-CITE-CITE

Generated 0 of 0 mixed pair_coeff terms from geometric mixing rule
WARNING: Communication cutoff 1.52 is shorter than a bond length based estimate of 1.855. This may lead to errors. (src/comm.cpp:694)
Neighbor list info ...
  update: every = 1 steps, delay = 1 steps, check = yes
  max neighbors/atom: 2000, page size: 100000
  master list distance cutoff = 1.52
  ghost atom cutoff = 1.52
  binsize = 1.52, bins = 23 23 23
  1 neighbor lists, perpetual/occasional/extra = 1 0 0
  (1) pair lj/cut/kk, perpetual
      attributes: half, newton on, kokkos_device
      pair build: half/bin/newton/kk/device
      stencil: half/bin/3d
      bin: kk/device
WARNING: Communication cutoff 1.52 is shorter than a bond length based estimate of 1.855. This may lead to errors. (src/comm.cpp:694)
Per MPI rank memory allocation (min/avg/max) = 29.98 | 29.98 | 29.98 Mbytes
   Step          Temp          E_pair         E_mol          TotEng         Press     
         0   0.97029772     0.44484087     20.494523      22.394765      4.6721833    
       500   0.98579996     0.44668216     20.502072      22.427408      4.732465     
      1000   0.99406297     0.44327864     20.516697      22.451024      4.7482377    
      1500   0.99227272     0.45475197     20.510846      22.453961      4.7583488    
      2000   0.99640905     0.45078657     20.513108      22.458462      4.7854636    
      2500   1.0003008      0.44548886     20.518679      22.464572      4.7847631    
      3000   0.99988345     0.44914224     20.51917       22.468091      4.7213842    
      3500   0.99934499     0.44886899     20.514007      22.461846      4.7372813    
      4000   0.99202491     0.45698828     20.51619       22.461169      4.8284147    
      4500   0.99618078     0.45618355     20.510994      22.461402      4.8211889    
      5000   1.0044642      0.44825148     20.521383      22.476284      4.6597992    
      5500   1.0085674      0.45305495     20.518945      22.484804      4.7619669    
      6000   1.0023966      0.45720852     20.516812      22.477568      4.8440377    
      6500   0.99432856     0.45484267     20.512595      22.458884      4.8036567    
      7000   0.99546964     0.45159301     20.51711       22.461861      4.7170605    
      7500   0.99482663     0.45459802     20.512369      22.45916       4.8190653    
      8000   1.0033589      0.45152021     20.515663      22.472174      4.7365021    
      8500   1.0028217      0.45759538     20.517295      22.479076      4.7226399    
      9000   0.99963283     0.45732439     20.519012      22.475739      4.8245349    
      9500   1.0030679      0.45244965     20.516504      22.473509      4.7390446    
     10000   0.99491988     0.45169295     20.520437      22.464463      4.8837444    
     10500   1.002097       0.45650367     20.511352      22.470954      4.9000696    
     11000   1.003296       0.45446389     20.514401      22.473762      4.8444679    
     11500   1.0043015      0.45720299     20.518408      22.482017      4.7846946    
     12000   1.0063436      0.45481828     20.517163      22.481449      4.7326477    
     12500   1.0036717      0.45082788     20.523489      22.479777      4.7864149    
     13000   1.0063566      0.45272421     20.515927      22.478139      4.8773136    
     13500   1.0085655      0.45549433     20.518505      22.486801      4.8441063    
     14000   1.0031466      0.45684341     20.513943      22.475459      4.8730274    
     14500   0.99919614     0.45240686     20.513221      22.464375      4.8027632    
     15000   0.99278605     0.46109355     20.521206      22.471432      4.8437741    
     15500   0.99892762     0.45737388     20.506317      22.462036      4.8531723    
     16000   0.99275373     0.45120786     20.507487      22.447779      4.7638714    
     16500   1.0053812      0.45140949     20.514698      22.474132      4.7300358    
     17000   1.0029859      0.45641468     20.516615      22.477461      4.7736821    
     17500   1.0079666      0.45729199     20.513007      22.482202      4.7759503    
     18000   1.0021638      0.45912363     20.514004      22.476326      4.83084      
     18500   1.0011956      0.45728182     20.518452      22.47748       4.8202891    
     19000   1.0010618      0.45519752     20.515779      22.472522      4.7489021    
     19500   1.0043669      0.46000587     20.517815      22.484324      4.8352187    
     20000   1.0038155      0.45675079     20.512942      22.475369      4.8188868    
     20500   0.99707907     0.452698       20.512416      22.460686      4.7699446    
     21000   0.99114996     0.4506501      20.513082      22.45041       4.7943899    
     21500   0.99106816     0.44486513     20.51517       22.446591      4.8245767    
     22000   0.99631308     0.44950921     20.513682      22.457614      4.7953201    
     22500   0.99196942     0.4544222      20.518268      22.460598      4.8184166    
     23000   0.99495811     0.45058257     20.523996      22.46697       4.7819367    
     23500   0.99263278     0.45540964     20.515834      22.460146      4.7819455    
     24000   0.99766674     0.46084799     20.516352      22.473654      4.7898242    
     24500   0.99642888     0.4547018      20.52105       22.470348      4.7339088    
     25000   1.0028201      0.45138214     20.512707      22.468272      4.7743109    
     25500   0.99260981     0.44668103     20.514783      22.450332      4.7670925    
     26000   0.99835504     0.45746086     20.515519      22.470466      4.7480674    
     26500   1.004373       0.45652908     20.52095       22.483992      4.7991648    
     27000   1.0042625      0.45683314     20.52009       22.48327       4.7824684    
     27500   1.0049599      0.45428818     20.516811      22.478492      4.8010961    
     28000   0.99788861     0.45498116     20.516693      22.46846       4.7888885    
     28500   1.0045295      0.45388684     20.517197      22.477831      4.8601139    
     29000   1.0034308      0.45523211     20.521681      22.482012      4.80624      
     29500   0.99818432     0.45737509     20.514174      22.468778      4.7936845    
     30000   0.99632015     0.45478321     20.514767      22.463983      4.7930538    
     30500   1.003365       0.45120659     20.513176      22.469383      4.7677703    
     31000   1.0031394      0.46189158     20.509678      22.476232      4.8736246    
     31500   1.0050362      0.4568303      20.515384      22.479722      4.8074259    
     32000   1.009425       0.4518067      20.514985      22.480882      4.8154422    
     32500   1.002971       0.45257679     20.512967      22.469954      4.7427541    
     33000   0.99907038     0.4541655      20.511132      22.463857      4.8020736    
     33500   0.99726966     0.45422271     20.514764      22.464845      4.8453404    
     34000   1.0046072      0.45851615     20.510125      22.475505      4.7825809    
     34500   1.0014329      0.45743816     20.516323      22.475863      4.8013335    
     35000   0.99898211     0.45299248     20.522346      22.473765      4.8840127    
     35500   1.0018157      0.45088407     20.513543      22.467104      4.7416714    
     36000   1.0050906      0.4503534      20.520448      22.478391      4.84021      
     36500   0.99651623     0.46108205     20.517782      22.473592      4.7589597    
     37000   1.0010262      0.45165027     20.517058      22.470201      4.7511929    
     37500   0.99900396     0.45619702     20.520452      22.475108      4.7557753    
     38000   1.00021        0.45327351     20.518426      22.471967      4.8240616    
     38500   0.99893776     0.453835       20.512785      22.464979      4.8870626    
     39000   0.99915206     0.45327919     20.513939      22.4659        4.7883935    
     39500   1.0064558      0.45108419     20.513129      22.47385       4.7966801    
     40000   1.0048647      0.45416736     20.512957      22.474374      4.7623696    
     40500   1.0086947      0.45346629     20.513368      22.479829      4.8336458    
     41000   1.0003355      0.45913546     20.514672      22.474264      4.8248267    
     41500   1.001331       0.45527667     20.510249      22.467475      4.8676842    
     42000   1.0030361      0.45564882     20.518478      22.478634      4.6671157    
     42500   1.0039615      0.4541767      20.514083      22.474155      4.7532136    
     43000   1.000408       0.4582661      20.511876      22.470707      4.7200406    
     43500   1.0082025      0.45346401     20.515195      22.480916      4.8697224    
     44000   1.0012677      0.45302824     20.518347      22.47323       4.8065153    
     44500   0.99873665     0.45124943     20.515875      22.465183      4.7511847    
     45000   0.9973109      0.45640745     20.507849      22.460176      4.7900467    
     45500   0.99612698     0.45349676     20.512525      22.460166      4.7461386    
     46000   1.0001065      0.45574437     20.51671       22.472567      4.7732055    
     46500   0.99474304     0.45715996     20.512349      22.461577      4.766759     
     47000   0.999528       0.45559568     20.510164      22.465004      4.8230623    
     47500   1.0018614      0.45790995     20.517256      22.477911      4.7892503    
     48000   1.0030679      0.45981749     20.514007      22.47838       4.7871101    
     48500   1.0052614      0.45186936     20.517178      22.476892      4.7923811    
     49000   0.99919099     0.45592093     20.516422      22.471083      4.7708592    
     49500   0.99860944     0.45480007     20.523777      22.476444      4.7763168    
     50000   1.0019515      0.45705287     20.52034       22.480273      4.7756361    
Loop time of 35.2266 on 8 procs for 50000 steps with 32000 atoms

Performance: 1471614.314 tau/day, 1419.381 timesteps/s, 45.420 Matom-step/s
98.6% CPU use with 1 MPI tasks x 8 OpenMP threads

MPI task timing breakdown:
Section |  min time  |  avg time  |  max time  |%varavg| %total
---------------------------------------------------------------
Pair    | 0.80413    | 0.80413    | 0.80413    |   0.0 |  2.28
Bond    | 2.8091     | 2.8091     | 2.8091     |   0.0 |  7.97
Neigh   | 3.6777     | 3.6777     | 3.6777     |   0.0 | 10.44
Comm    | 22.399     | 22.399     | 22.399     |   0.0 | 63.59
Output  | 0.0043242  | 0.0043242  | 0.0043242  |   0.0 |  0.01
Modify  | 2.9316     | 2.9316     | 2.9316     |   0.0 |  8.32
Other   |            | 2.6        |            |       |  7.38

Nlocal:          32000 ave       32000 max       32000 min
Histogram: 1 0 0 0 0 0 0 0 0 0
Nghost:           9522 ave        9522 max        9522 min
Histogram: 1 0 0 0 0 0 0 0 0 0
Neighs:         155751 ave      155751 max      155751 min
Histogram: 1 0 0 0 0 0 0 0 0 0

Total # of neighbors = 155751
Ave neighs/atom = 4.8672188
Ave special neighs/atom = 1.98
Neighbor list builds = 12550
Dangerous builds = 0
Total wall time: 0:01:20
