LAMMPS (30 Mar 2026)
KOKKOS mode with Kokkos version 5.1.99 is enabled
  using double precision
  using view layout = legacy
  will use up to 1 GPU(s) per node
  using 8 OpenMP thread(s) per MPI task
package kokkos
package kokkos gpu/aware on newton on neigh half
# FENE beadspring benchmark

units           lj
atom_style      bond
special_bonds   fene

read_data       input/data.chain
Reading data file ...
  orthogonal box = (-16.796 -16.796 -16.796) to (16.796 16.796 16.796)
  1 by 1 by 1 MPI processor grid
  reading atoms ...
  32000 atoms
  reading velocities ...
  32000 velocities
  scanning bonds ...
  1 = max bonds/atom
  orthogonal box = (-16.796 -16.796 -16.796) to (16.796 16.796 16.796)
  1 by 1 by 1 MPI processor grid
  reading bonds ...
  31680 bonds
Finding 1-2 1-3 1-4 neighbors ...
  special bond factors lj:    0        1        1       
  special bond factors coul:  0        1        1       
     2 = max # of 1-2 neighbors
     2 = max # of special neighbors
  special bonds CPU = 0.100 seconds
  read_data CPU = 2.485 seconds

neighbor        0.4 bin
neigh_modify    every 1 delay 1

bond_style      fene
bond_coeff      1 30.0 1.5 1.0 1.0

pair_style      lj/cut 1.12
pair_modify     shift yes
pair_coeff      1 1 1.0 1.0 1.12

fix             1 all nve
fix             2 all langevin 1.0 1.0 10.0 904297

fix             3 all imd 8887 version 3 unwrap off nowait off trate 50 time off box off coordinates on velocities off forces off
Using fix imd with asynchronous I/O.

thermo          500
timestep        0.012

run             50000

CITE-CITE-CITE-CITE-CITE-CITE-CITE-CITE-CITE-CITE-CITE-CITE-CITE

Your simulation uses code contributions which should be cited:

- KOKKOS package: https://doi.org/10.1145/3731599.3767498

@inproceedings{Johansson25,
 author = {A. Johansson and E. Weinberg and C. Trott and M. McCarthy and S. Moore},
 title = {{LAMMPS-KOKKOS}: {P}erformance Portable Molecular Dynamics Across Exascale Architectures},
 year = 2025,
 booktitle = {Proceedings of the SC '25 Workshops of the International Conference for High Performance Computing,
  Networking, Storage and Analysis},
 pages = {1217–1232},
}

CITE-CITE-CITE-CITE-CITE-CITE-CITE-CITE-CITE-CITE-CITE-CITE-CITE

Generated 0 of 0 mixed pair_coeff terms from geometric mixing rule
WARNING: Communication cutoff 1.52 is shorter than a bond length based estimate of 1.855. This may lead to errors. (src/comm.cpp:694)
Neighbor list info ...
  update: every = 1 steps, delay = 1 steps, check = yes
  max neighbors/atom: 2000, page size: 100000
  master list distance cutoff = 1.52
  ghost atom cutoff = 1.52
  binsize = 1.52, bins = 23 23 23
  1 neighbor lists, perpetual/occasional/extra = 1 0 0
  (1) pair lj/cut/kk, perpetual
      attributes: half, newton on, kokkos_device
      pair build: half/bin/newton/kk/device
      stencil: half/bin/3d
      bin: kk/device
WARNING: Communication cutoff 1.52 is shorter than a bond length based estimate of 1.855. This may lead to errors. (src/comm.cpp:694)
Per MPI rank memory allocation (min/avg/max) = 29.98 | 29.98 | 29.98 Mbytes
   Step          Temp          E_pair         E_mol          TotEng         Press     
         0   0.97029772     0.44484087     20.494523      22.394765      4.6721833    
       500   0.99108617     0.44798098     20.511732      22.446296      4.7431582    
      1000   0.99233032     0.44998929     20.512039      22.450477      4.7562233    
      1500   0.99810523     0.44725223     20.51364       22.458003      4.6276486    
      2000   0.99993692     0.45054095     20.513515      22.463915      4.7252423    
      2500   0.99657921     0.44941536     20.509271      22.453509      4.8120293    
      3000   0.99960584     0.44907756     20.513389      22.461829      4.8129331    
      3500   0.99963967     0.45358193     20.509386      22.462381      4.6840203    
      4000   0.99685818     0.45856812     20.515054      22.468862      4.8324057    
      4500   0.99836923     0.45121232     20.514796      22.463516      4.8104078    
      5000   1.0042615      0.45656055     20.5162        22.479106      4.7832971    
      5500   1.0021587      0.46101017     20.513074      22.477275      4.8736768    
      6000   1.000577       0.45622013     20.510437      22.467475      4.7978469    
      6500   0.99985571     0.44658915     20.509092      22.455418      4.7373232    
      7000   0.99829565     0.45255559     20.512903      22.462855      4.7165465    
      7500   0.994824       0.45356078     20.517563      22.463313      4.7575964    
      8000   1.0033973      0.45098994     20.518835      22.474874      4.7716166    
      8500   1.0041849      0.44881727     20.515679      22.470726      4.7880297    
      9000   0.9993438      0.45129602     20.51505       22.465315      4.7072924    
      9500   1.0017254      0.45272256     20.513003      22.468266      4.7555245    
     10000   1.003168       0.4468364      20.513349      22.46489       4.8117347    
     10500   0.99119733     0.45576705     20.516099      22.458616      4.7933626    
     11000   1.0054114      0.45853876     20.514501      22.48111       4.8302486    
     11500   0.99941407     0.45199119     20.514608      22.465674      4.8024965    
     12000   0.99309913     0.45772064     20.513246      22.460569      4.8184393    
     12500   0.99652637     0.45524251     20.517673      22.467658      4.7960792    
     13000   0.99378465     0.45455811     20.51523       22.460418      4.8132599    
     13500   0.99766855     0.44956496     20.519732      22.465753      4.8317408    
     14000   0.99070463     0.45363319     20.513037      22.452681      4.814385     
     14500   0.99579392     0.45706248     20.513086      22.463793      4.8054264    
     15000   1.0020401      0.45127407     20.515012      22.4693        4.7449331    
     15500   0.99831364     0.45049196     20.514132      22.462047      4.8122986    
     16000   1.0012084      0.44905404     20.509021      22.459841      4.6953464    
     16500   0.99939007     0.4547749      20.521001      22.474814      4.7316389    
     17000   1.0074978      0.4488362      20.508738      22.468774      4.7528828    
     17500   1.0092761      0.45296069     20.513525      22.480352      4.8156433    
     18000   1.0025185      0.45456509     20.5148        22.473096      4.7868742    
     18500   0.9993364      0.45115692     20.519604      22.469719      4.7323961    
     19000   0.99663975     0.45641457     20.515531      22.466859      4.7931142    
     19500   0.9999719      0.45197064     20.515998      22.467879      4.7884942    
     20000   1.0072426      0.44964332     20.519279      22.479739      4.8192499    
     20500   1.0103199      0.45340928     20.51859       22.487431      4.759772     
     21000   1.0063761      0.45465041     20.511199      22.475366      4.8080622    
     21500   0.99603968     0.45758487     20.518502      22.4701        4.8159772    
     22000   0.99232962     0.45543669     20.518242      22.462127      4.7243758    
     22500   1.008535       0.45372196     20.519239      22.485716      4.8730277    
     23000   1.0136293      0.45884337     20.509422      22.488662      4.8079559    
     23500   1.0031314      0.45778591     20.521408      22.483844      4.7960012    
     24000   1.0021158      0.45405527     20.514672      22.471854      4.8556539    
     24500   0.99999277     0.45630933     20.519809      22.476061      4.7931747    
     25000   1.0098197      0.45039828     20.511195      22.476275      4.7816159    
     25500   1.0024622      0.45440355     20.515865      22.473914      4.8536497    
     26000   1.0023039      0.45258232     20.518318      22.474309      4.7681291    
     26500   1.0031443      0.4549111      20.511494      22.471075      4.8764592    
     27000   0.99846638     0.45065543     20.513249      22.461557      4.8227884    
     27500   1.0034021      0.4576629      20.513621      22.47634       4.826077     
     28000   1.0063163      0.45695941     20.522612      22.488999      4.8316946    
     28500   1.0057865      0.46477775     20.519163      22.492574      4.8116595    
     29000   1.0009672      0.45535776     20.51993       22.476692      4.8120049    
     29500   0.99924477     0.45828927     20.520226      22.477336      4.8442893    
     30000   1.0068627      0.45715321     20.512891      22.480291      4.8071275    
     30500   1.0082806      0.45417427     20.513164      22.479712      4.800786     
     31000   1.0040124      0.4530668      20.51497       22.474008      4.7623913    
     31500   1.0068632      0.459521       20.51777       22.487538      4.8510289    
     32000   0.99906534     0.45505018     20.517668      22.471269      4.8699643    
     32500   0.99798626     0.45139127     20.525287      22.473611      4.854324     
     33000   0.99979374     0.44800593     20.511737      22.459386      4.7812767    
     33500   1.0042536      0.45084756     20.511299      22.46848       4.7289335    
     34000   1.0038006      0.44821058     20.520038      22.473902      4.8195197    
     34500   0.99718697     0.46193354     20.514691      22.472358      4.7897342    
     35000   1.000188       0.45408979     20.515069      22.469394      4.7454681    
     35500   0.99583957     0.4466459      20.520162      22.460521      4.7716451    
     36000   0.99807096     0.45429406     20.513776      22.46513       4.8116271    
     36500   0.99142602     0.45723004     20.507111      22.451433      4.8137671    
     37000   0.99768415     0.45456271     20.510014      22.461056      4.8627743    
     37500   1.0002548      0.45160508     20.511127      22.463067      4.7882119    
     38000   1.0017282      0.45509672     20.513914      22.471556      4.7714444    
     38500   0.99790089     0.45298225     20.513654      22.463441      4.7407219    
     39000   1.0036583      0.44428243     20.509283      22.459006      4.7075474    
     39500   1.0040571      0.44893956     20.514267      22.469245      4.8136564    
     40000   0.99364103     0.45277839     20.520278      22.463472      4.73895      
     40500   0.99835876     0.45551434     20.51653       22.469536      4.7263228    
     41000   1.0008319      0.45473325     20.511008      22.466942      4.7837092    
     41500   1.0073181      0.45735659     20.510645      22.478932      4.786208     
     42000   1.0018244      0.45749405     20.514338      22.474522      4.7912088    
     42500   1.0017615      0.45401785     20.521357      22.47797       4.8104517    
     43000   0.99688088     0.45115986     20.515868      22.462302      4.8757683    
     43500   1.0035392      0.45098214     20.51562       22.471864      4.7344455    
     44000   0.99678016     0.45272771     20.518223      22.466074      4.754421     
     44500   1.0042477      0.45409981     20.508782      22.469206      4.8304571    
     45000   1.0028877      0.457149       20.516532      22.477966      4.8230695    
     45500   1.0030549      0.45387835     20.513377      22.47179       4.7467186    
     46000   1.0006036      0.45167788     20.512136      22.464673      4.759884     
     46500   0.99603667     0.45019513     20.523466      22.467669      4.789058     
     47000   0.99699837     0.45359471     20.509349      22.458394      4.7068624    
     47500   0.99042449     0.45208341     20.514881      22.452555      4.7723183    
     48000   0.99513569     0.44807092     20.516877      22.457604      4.7403038    
     48500   1.0000203      0.45444985     20.509123      22.463557      4.8064066    
     49000   1.002642       0.45770915     20.515003      22.476628      4.8635229    
     49500   1.0025432      0.45494051     20.514725      22.473434      4.8587723    
     50000   1.000025       0.45525803     20.513281      22.468529      4.8536043    
Loop time of 34.9252 on 8 procs for 50000 steps with 32000 atoms

Performance: 1484313.243 tau/day, 1431.629 timesteps/s, 45.812 Matom-step/s
98.7% CPU use with 1 MPI tasks x 8 OpenMP threads

MPI task timing breakdown:
Section |  min time  |  avg time  |  max time  |%varavg| %total
---------------------------------------------------------------
Pair    | 0.80163    | 0.80163    | 0.80163    |   0.0 |  2.30
Bond    | 2.7959     | 2.7959     | 2.7959     |   0.0 |  8.01
Neigh   | 3.6228     | 3.6228     | 3.6228     |   0.0 | 10.37
Comm    | 22.224     | 22.224     | 22.224     |   0.0 | 63.63
Output  | 0.0043574  | 0.0043574  | 0.0043574  |   0.0 |  0.01
Modify  | 2.9025     | 2.9025     | 2.9025     |   0.0 |  8.31
Other   |            | 2.574      |            |       |  7.37

Nlocal:          32000 ave       32000 max       32000 min
Histogram: 1 0 0 0 0 0 0 0 0 0
Nghost:           9453 ave        9453 max        9453 min
Histogram: 1 0 0 0 0 0 0 0 0 0
Neighs:         155916 ave      155916 max      155916 min
Histogram: 1 0 0 0 0 0 0 0 0 0

Total # of neighbors = 155916
Ave neighs/atom = 4.872375
Ave special neighs/atom = 1.98
Neighbor list builds = 12539
Dangerous builds = 0
Total wall time: 0:01:20
