LAMMPS (30 Mar 2026)
KOKKOS mode with Kokkos version 5.1.99 is enabled
  using double precision
  using view layout = legacy
  will use up to 1 GPU(s) per node
  using 8 OpenMP thread(s) per MPI task
package kokkos
package kokkos gpu/aware on newton on neigh half
# FENE beadspring benchmark

units           lj
atom_style      bond
special_bonds   fene

read_data       input/data.chain
Reading data file ...
  orthogonal box = (-16.796 -16.796 -16.796) to (16.796 16.796 16.796)
  1 by 1 by 1 MPI processor grid
  reading atoms ...
  32000 atoms
  reading velocities ...
  32000 velocities
  scanning bonds ...
  1 = max bonds/atom
  orthogonal box = (-16.796 -16.796 -16.796) to (16.796 16.796 16.796)
  1 by 1 by 1 MPI processor grid
  reading bonds ...
  31680 bonds
Finding 1-2 1-3 1-4 neighbors ...
  special bond factors lj:    0        1        1       
  special bond factors coul:  0        1        1       
     2 = max # of 1-2 neighbors
     2 = max # of special neighbors
  special bonds CPU = 0.101 seconds
  read_data CPU = 2.477 seconds

neighbor        0.4 bin
neigh_modify    every 1 delay 1

bond_style      fene
bond_coeff      1 30.0 1.5 1.0 1.0

pair_style      lj/cut 1.12
pair_modify     shift yes
pair_coeff      1 1 1.0 1.0 1.12

fix             1 all nve
fix             2 all langevin 1.0 1.0 10.0 904297

fix             3 all imd 8887 version 3 unwrap off nowait off trate 50 time off box off coordinates on velocities on forces on
Using fix imd with asynchronous I/O.

thermo          500
timestep        0.012

run             50000

CITE-CITE-CITE-CITE-CITE-CITE-CITE-CITE-CITE-CITE-CITE-CITE-CITE

Your simulation uses code contributions which should be cited:

- KOKKOS package: https://doi.org/10.1145/3731599.3767498

@inproceedings{Johansson25,
 author = {A. Johansson and E. Weinberg and C. Trott and M. McCarthy and S. Moore},
 title = {{LAMMPS-KOKKOS}: {P}erformance Portable Molecular Dynamics Across Exascale Architectures},
 year = 2025,
 booktitle = {Proceedings of the SC '25 Workshops of the International Conference for High Performance Computing,
  Networking, Storage and Analysis},
 pages = {1217–1232},
}

CITE-CITE-CITE-CITE-CITE-CITE-CITE-CITE-CITE-CITE-CITE-CITE-CITE

Generated 0 of 0 mixed pair_coeff terms from geometric mixing rule
WARNING: Communication cutoff 1.52 is shorter than a bond length based estimate of 1.855. This may lead to errors. (src/comm.cpp:694)
Neighbor list info ...
  update: every = 1 steps, delay = 1 steps, check = yes
  max neighbors/atom: 2000, page size: 100000
  master list distance cutoff = 1.52
  ghost atom cutoff = 1.52
  binsize = 1.52, bins = 23 23 23
  1 neighbor lists, perpetual/occasional/extra = 1 0 0
  (1) pair lj/cut/kk, perpetual
      attributes: half, newton on, kokkos_device
      pair build: half/bin/newton/kk/device
      stencil: half/bin/3d
      bin: kk/device
WARNING: Communication cutoff 1.52 is shorter than a bond length based estimate of 1.855. This may lead to errors. (src/comm.cpp:694)
Per MPI rank memory allocation (min/avg/max) = 29.98 | 29.98 | 29.98 Mbytes
   Step          Temp          E_pair         E_mol          TotEng         Press     
         0   0.97029772     0.44484087     20.494523      22.394765      4.6721833    
       500   0.98109593     0.45144157     20.508809      22.431848      4.8167742    
      1000   0.98881002     0.45276245     20.51261       22.448542      4.8126197    
      1500   0.99877021     0.44709122     20.513656      22.458856      4.8200441    
      2000   0.9998984      0.44622355     20.517198      22.463223      4.7573152    
      2500   1.0021746      0.45448611     20.508891      22.466592      4.8259684    
      3000   1.0041787      0.4536214      20.509436      22.469278      4.7623521    
      3500   1.0008513      0.4590112      20.517617      22.477859      4.7957834    
      4000   1.0040653      0.45313478     20.507744      22.46693       4.8394923    
      4500   1.0007872      0.45226688     20.513076      22.466477      4.7473999    
      5000   0.99906381     0.44978315     20.518391      22.466723      4.8723139    
      5500   0.99928766     0.4554281      20.518911      22.473224      4.864883     
      6000   1.0003069      0.45377978     20.512618      22.466811      4.7718533    
      6500   1.0065777      0.44916314     20.51142       22.470403      4.772809     
      7000   0.99598805     0.4559565      20.513625      22.463517      4.8201252    
      7500   1.0079662      0.4491611      20.514672      22.475735      4.7763264    
      8000   1.0063942      0.45512012     20.519598      22.484262      4.8321137    
      8500   1.00211        0.45259427     20.517992      22.473704      4.7968271    
      9000   1.0006632      0.44902457     20.518476      22.468449      4.8263389    
      9500   0.99887943     0.4516824      20.507228      22.457183      4.7182668    
     10000   1.0015733      0.44911923     20.519566      22.470998      4.807792     
     10500   1.0006276      0.45712597     20.503957      22.461977      4.823838     
     11000   0.99762462     0.45361739     20.512708      22.462716      4.7196303    
     11500   0.9932711      0.4504984      20.517177      22.457535      4.7917636    
     12000   0.99208072     0.45339009     20.517347      22.458811      4.7261223    
     12500   1.0029295      0.45638484     20.512704      22.473436      4.8899454    
     13000   1.0048122      0.45932765     20.51854       22.485039      4.8300393    
     13500   1.0025104      0.46297171     20.507309      22.473999      4.7574751    
     14000   0.99856953     0.4566938      20.516938      22.471439      4.7776391    
     14500   1.0033055      0.45133775     20.514506      22.470755      4.8022874    
     15000   0.99997395     0.45345911     20.514457      22.46783       4.824925     
     15500   0.99805866     0.45619089     20.519633      22.472866      4.8344935    
     16000   1.0041927      0.45210964     20.51776       22.476112      4.7666843    
     16500   1.0065389      0.45425442     20.513099      22.477115      4.7561393    
     17000   1.0033735      0.45594277     20.511653      22.472609      4.7971199    
     17500   0.99546809     0.45276192     20.518022      22.463939      4.8211706    
     18000   0.99593436     0.45765197     20.515796      22.467303      4.7923806    
     18500   0.99998766     0.46211028     20.515921      22.477966      4.8688337    
     19000   1.0031949      0.45544315     20.516018      22.476207      4.8158145    
     19500   0.99986919     0.45222475     20.522247      22.474228      4.7882579    
     20000   1.0085223      0.4538032      20.521056      22.487596      4.8214042    
     20500   1.0046961      0.45801587     20.506227      22.47124       4.8046294    
     21000   1.0030432      0.45173551     20.520266      22.476519      4.8005514    
     21500   1.0035379      0.4543077      20.518339      22.477906      4.8542084    
     22000   1.0001632      0.45826601     20.519968      22.478432      4.7987018    
     22500   1.0047476      0.45628646     20.51214       22.475501      4.8157556    
     23000   1.0056232      0.45392258     20.514443      22.476753      4.7677394    
     23500   0.99865455     0.46337728     20.520645      22.481957      4.8902249    
     24000   1.0028387      0.45779299     20.516184      22.478188      4.8236443    
     24500   1.0056085      0.45045431     20.507899      22.466719      4.7813088    
     25000   1.0023887      0.45576785     20.512977      22.472281      4.7890519    
     25500   1.0020589      0.45347911     20.510867      22.467388      4.7628287    
     26000   0.99153112     0.45514844     20.519631      22.46203       4.789525     
     26500   0.99749752     0.44605255     20.514972      22.457224      4.7694978    
     27000   1.0076719      0.45074169     20.505188      22.467391      4.7538369    
     27500   0.99887131     0.45238033     20.519453      22.470094      4.7651588    
     28000   1.0043648      0.45590249     20.509645      22.472048      4.821649     
     28500   0.99516427     0.45890292     20.511137      22.46274       4.8993523    
     29000   0.99092255     0.46440749     20.520107      22.470852      4.7865676    
     29500   1.0039101      0.45413637     20.516349      22.476303      4.7837131    
     30000   1.0059504      0.45390446     20.519038      22.481821      4.7880515    
     30500   1.0046033      0.45574784     20.512753      22.475358      4.7948402    
     31000   1.0091933      0.46091247     20.515947      22.490602      4.8838374    
     31500   1.007178       0.45684128     20.518767      22.486328      4.7061591    
     32000   1.0050981      0.45251803     20.518153      22.478271      4.7622873    
     32500   1.0004535      0.4517985      20.518134      22.470566      4.772573     
     33000   1.0039077      0.45437097     20.517615      22.4778        4.817136     
     33500   1.001928       0.45579274     20.514667      22.473305      4.7449688    
     34000   0.99752177     0.45497281     20.507497      22.458705      4.8270392    
     34500   0.99496698     0.44978078     20.512936      22.45512       4.7285022    
     35000   1.0033879      0.4551733      20.514136      22.474344      4.7389948    
     35500   0.99424373     0.46028258     20.511736      22.463338      4.8031966    
     36000   0.99436741     0.45819926     20.515325      22.465029      4.819027     
     36500   0.997652       0.45411804     20.51891       22.469459      4.807152     
     37000   0.99693476     0.45267662     20.517218      22.46525       4.7924037    
     37500   0.99926718     0.44872309     20.514748      22.462325      4.818279     
     38000   1.0031698      0.45133719     20.506946      22.462991      4.7253478    
     38500   0.99897279     0.45453622     20.515835      22.468784      4.8741081    
     39000   1.0009507      0.45151626     20.517556      22.470451      4.7549364    
     39500   1.0043922      0.44771021     20.521614      22.475866      4.7310499    
     40000   0.99904356     0.46032162     20.515374      22.474214      4.8536157    
     40500   1.0038315      0.45123172     20.516949      22.473881      4.7822107    
     41000   1.0019609      0.45634837     20.51728       22.476523      4.7717972    
     41500   1.0044172      0.44919633     20.516146      22.471922      4.7420694    
     42000   1.0056406      0.45198763     20.511853      22.472255      4.7234396    
     42500   0.99928556     0.45487657     20.513721      22.467479      4.7964915    
     43000   1.0007365      0.44535263     20.516282      22.462693      4.7217052    
     43500   0.99971675     0.45658667     20.512091      22.468206      4.7653141    
     44000   0.99854043     0.45119485     20.521804      22.470762      4.7857539    
     44500   0.98946202     0.46154503     20.521877      22.467569      4.8002534    
     45000   0.99929879     0.45133349     20.515086      22.465321      4.7760027    
     45500   1.0056924      0.46018576     20.509001      22.477678      4.8397615    
     46000   1.0071411      0.45022802     20.518408      22.4793        4.7421386    
     46500   1.0031773      0.45092733     20.513084      22.46873       4.7206419    
     47000   0.99704516     0.46070103     20.519091      22.475313      4.846265     
     47500   1.0070335      0.4542906      20.515083      22.479877      4.7225       
     48000   1.0063353      0.45473013     20.524243      22.488429      4.7618864    
     48500   1.0042438      0.45318077     20.515746      22.475246      4.7621563    
     49000   1.0108296      0.452586       20.517224      22.486007      4.8606245    
     49500   1.00419        0.45931083     20.509988      22.475537      4.7929736    
     50000   0.99972923     0.45398365     20.51433       22.467861      4.7947375    
Loop time of 37.7539 on 8 procs for 50000 steps with 32000 atoms

Performance: 1373103.543 tau/day, 1324.367 timesteps/s, 42.380 Matom-step/s
96.7% CPU use with 1 MPI tasks x 8 OpenMP threads

MPI task timing breakdown:
Section |  min time  |  avg time  |  max time  |%varavg| %total
---------------------------------------------------------------
Pair    | 0.84724    | 0.84724    | 0.84724    |   0.0 |  2.24
Bond    | 2.8831     | 2.8831     | 2.8831     |   0.0 |  7.64
Neigh   | 3.7034     | 3.7034     | 3.7034     |   0.0 |  9.81
Comm    | 22.596     | 22.596     | 22.596     |   0.0 | 59.85
Output  | 0.0060306  | 0.0060306  | 0.0060306  |   0.0 |  0.02
Modify  | 5.058      | 5.058      | 5.058      |   0.0 | 13.40
Other   |            | 2.66       |            |       |  7.05

Nlocal:          32000 ave       32000 max       32000 min
Histogram: 1 0 0 0 0 0 0 0 0 0
Nghost:           9424 ave        9424 max        9424 min
Histogram: 1 0 0 0 0 0 0 0 0 0
Neighs:         155797 ave      155797 max      155797 min
Histogram: 1 0 0 0 0 0 0 0 0 0

Total # of neighbors = 155797
Ave neighs/atom = 4.8686562
Ave special neighs/atom = 1.98
Neighbor list builds = 12554
Dangerous builds = 0
Total wall time: 0:01:23
