LAMMPS (30 Mar 2026)
KOKKOS mode with Kokkos version 5.1.99 is enabled
  using double precision
  using view layout = legacy
  will use up to 1 GPU(s) per node
  using 8 OpenMP thread(s) per MPI task
package kokkos
package kokkos gpu/aware on newton on neigh half
# FENE beadspring benchmark

units           lj
atom_style      bond
special_bonds   fene

read_data       input/data.chain
Reading data file ...
  orthogonal box = (-16.796 -16.796 -16.796) to (16.796 16.796 16.796)
  1 by 1 by 1 MPI processor grid
  reading atoms ...
  32000 atoms
  reading velocities ...
  32000 velocities
  scanning bonds ...
  1 = max bonds/atom
  orthogonal box = (-16.796 -16.796 -16.796) to (16.796 16.796 16.796)
  1 by 1 by 1 MPI processor grid
  reading bonds ...
  31680 bonds
Finding 1-2 1-3 1-4 neighbors ...
  special bond factors lj:    0        1        1       
  special bond factors coul:  0        1        1       
     2 = max # of 1-2 neighbors
     2 = max # of special neighbors
  special bonds CPU = 0.105 seconds
  read_data CPU = 2.449 seconds

neighbor        0.4 bin
neigh_modify    every 1 delay 1

bond_style      fene
bond_coeff      1 30.0 1.5 1.0 1.0

pair_style      lj/cut 1.12
pair_modify     shift yes
pair_coeff      1 1 1.0 1.0 1.12

fix             1 all nve
fix             2 all langevin 1.0 1.0 10.0 904297

fix             3 all imd 8887 version 3 unwrap off nowait off trate 1 time off box off coordinates on velocities off forces off
Using fix imd with asynchronous I/O.

thermo          500
timestep        0.012

run             50000

CITE-CITE-CITE-CITE-CITE-CITE-CITE-CITE-CITE-CITE-CITE-CITE-CITE

Your simulation uses code contributions which should be cited:

- KOKKOS package: https://doi.org/10.1145/3731599.3767498

@inproceedings{Johansson25,
 author = {A. Johansson and E. Weinberg and C. Trott and M. McCarthy and S. Moore},
 title = {{LAMMPS-KOKKOS}: {P}erformance Portable Molecular Dynamics Across Exascale Architectures},
 year = 2025,
 booktitle = {Proceedings of the SC '25 Workshops of the International Conference for High Performance Computing,
  Networking, Storage and Analysis},
 pages = {1217–1232},
}

CITE-CITE-CITE-CITE-CITE-CITE-CITE-CITE-CITE-CITE-CITE-CITE-CITE

Generated 0 of 0 mixed pair_coeff terms from geometric mixing rule
WARNING: Communication cutoff 1.52 is shorter than a bond length based estimate of 1.855. This may lead to errors. (src/comm.cpp:694)
Neighbor list info ...
  update: every = 1 steps, delay = 1 steps, check = yes
  max neighbors/atom: 2000, page size: 100000
  master list distance cutoff = 1.52
  ghost atom cutoff = 1.52
  binsize = 1.52, bins = 23 23 23
  1 neighbor lists, perpetual/occasional/extra = 1 0 0
  (1) pair lj/cut/kk, perpetual
      attributes: half, newton on, kokkos_device
      pair build: half/bin/newton/kk/device
      stencil: half/bin/3d
      bin: kk/device
WARNING: Communication cutoff 1.52 is shorter than a bond length based estimate of 1.855. This may lead to errors. (src/comm.cpp:694)
Per MPI rank memory allocation (min/avg/max) = 29.98 | 29.98 | 29.98 Mbytes
   Step          Temp          E_pair         E_mol          TotEng         Press     
         0   0.97029772     0.44484087     20.494523      22.394765      4.6721833    
       500   0.99108743     0.44798001     20.511731      22.446296      4.7431428    
      1000   0.9910993      0.45636657     20.515681      22.45865       4.7868142    
      1500   0.98948688     0.45421402     20.515193      22.453591      4.7109597    
      2000   0.99403305     0.44988895     20.514186      22.455078      4.7375385    
      2500   0.99771303     0.45528765     20.508993      22.460803      4.8436135    
      3000   0.99798657     0.45339874     20.516563      22.466895      4.7656764    
      3500   0.99988694     0.45613601     20.512831      22.468751      4.6411188    
      4000   0.99795599     0.45405471     20.509702      22.460644      4.721595     
      4500   0.99142484     0.45116795     20.512651      22.450909      4.7980478    
      5000   1.0020159      0.4521454      20.502635      22.457758      4.8442106    
      5500   0.99535162     0.44853806     20.519853      22.461372      4.7501595    
      6000   0.99875311     0.45520955     20.518627      22.471919      4.7654401    
      6500   1.0042153      0.45728624     20.518084      22.481646      4.856833     
      7000   1.0074849      0.45224214     20.513862      22.477284      4.7319395    
      7500   1.003351       0.44511168     20.520522      22.470613      4.6910441    
      8000   1.0014222      0.45304101     20.515534      22.470661      4.7900158    
      8500   1.0027587      0.45636818     20.512521      22.47298       4.823585     
      9000   0.99746533     0.4553604      20.51727       22.468782      4.7586553    
      9500   1.0030521      0.44748246     20.520504      22.472517      4.7721884    
     10000   1.0031314      0.45332622     20.511368      22.469344      4.8248274    
     10500   1.0056852      0.4515675      20.512321      22.47237       4.8140084    
     11000   1.0037313      0.45554941     20.523396      22.484495      4.7181884    
     11500   1.0052188      0.45409499     20.512411      22.474287      4.6599597    
     12000   1.0004962      0.45483239     20.519355      22.474885      4.9119673    
     12500   1.0043709      0.45380919     20.52541       22.485728      4.8649439    
     13000   1.0036987      0.45137164     20.5164        22.473273      4.8049924    
     13500   1.0129148      0.45180324     20.514611      22.485739      4.7275209    
     14000   1.0080667      0.45227015     20.514602      22.478925      4.8156974    
     14500   1.0030959      0.45341201     20.506783      22.464792      4.7794531    
     15000   0.99330908     0.44744765     20.511909      22.449274      4.9068686    
     15500   0.99746032     0.45314542     20.514582      22.463872      4.8169259    
     16000   0.99030735     0.45717407     20.517684      22.460272      4.7659497    
     16500   1.0008851      0.46086592     20.515922      22.478068      4.8424062    
     17000   0.99677668     0.45266136     20.525041      22.472821      4.84229      
     17500   1.0024425      0.45359015     20.510565      22.467772      4.8146572    
     18000   1.0043712      0.45767122     20.508226      22.472407      4.8263087    
     18500   0.99339412     0.4574369      20.52422       22.471702      4.7624651    
     19000   1.0053784      0.45653269     20.516979      22.481532      4.7755898    
     19500   1.0083678      0.45172665     20.517681      22.481912      4.8257412    
     20000   1.0034087      0.45600686     20.514066      22.475139      4.8001402    
     20500   1.0018194      0.45053946     20.512137      22.465358      4.8050575    
     21000   0.99676606     0.45164111     20.52028       22.467023      4.8092917    
     21500   0.99649055     0.44931935     20.514447      22.458455      4.7364735    
     22000   1.002266       0.45074022     20.524604      22.478697      4.8367908    
     22500   1.0034076      0.45766276     20.515104      22.477831      4.813456     
     23000   1.0034909      0.45169253     20.514751      22.471633      4.8657082    
     23500   1.0074392      0.45269638     20.510319      22.474127      4.8167126    
     24000   1.0100016      0.4519604      20.517804      22.48472       4.8280887    
     24500   1.0076616      0.45680319     20.51689       22.485139      4.7230409    
     25000   1.0056561      0.45173745     20.514941      22.475116      4.8408318    
     25500   1.0018647      0.45606788     20.519549      22.478367      4.856906     
     26000   1.0046588      0.45192563     20.509439      22.468306      4.838087     
     26500   0.99763682     0.45330719     20.516628      22.466344      4.8193032    
     27000   0.99462429     0.45320541     20.512647      22.457742      4.8246945    
     27500   1.0036415      0.45501066     20.514746      22.475172      4.8250103    
     28000   1.0006824      0.45482917     20.507868      22.463674      4.8399888    
     28500   0.9951131      0.44863607     20.51735       22.458609      4.7691712    
     29000   0.99807038     0.457069       20.517148      22.471275      4.8358141    
     29500   1.0002392      0.4571398      20.521722      22.479174      4.8813201    
     30000   1.0072457      0.45354326     20.510606      22.474971      4.8545817    
     30500   1.0029203      0.45569434     20.519349      22.479377      4.8492464    
     31000   0.99657176     0.45580189     20.511097      22.46171       4.7643973    
     31500   1.0088325      0.4467109      20.514772      22.474685      4.6754849    
     32000   0.99892232     0.45328179     20.515166      22.466784      4.8301935    
     32500   1.0030556      0.45622809     20.516524      22.477288      4.761264     
     33000   1.0042133      0.459485       20.512936      22.478694      4.8809543    
     33500   1.0039525      0.45468308     20.51548       22.476045      4.7640929    
     34000   0.99309952     0.45515623     20.514765      22.459524      4.8845224    
     34500   1.0002388      0.45222442     20.514752      22.467288      4.8291286    
     35000   0.99573934     0.45107394     20.517062      22.461698      4.7442816    
     35500   1.0012587      0.44805952     20.509632      22.459532      4.8479411    
     36000   1.0050018      0.45088513     20.524161      22.482502      4.7497125    
     36500   1.0075057      0.45189204     20.51591       22.479013      4.8117848    
     37000   1.002617       0.44997308     20.517545      22.471397      4.8219441    
     37500   1.0015877      0.45149874     20.518244      22.472077      4.8212868    
     38000   1.0015931      0.45529866     20.518255      22.475897      4.8087254    
     38500   0.99933039     0.45697232     20.518053      22.473974      4.8822541    
     39000   1.0079869      0.44873918     20.521271      22.481943      4.8035211    
     39500   1.0056729      0.45611178     20.516394      22.480968      4.8150697    
     40000   1.0038043      0.45816064     20.512814      22.476634      4.8374795    
     40500   1.0027731      0.45671883     20.512352      22.473183      4.9189352    
     41000   0.99501033     0.45309044     20.521089      22.466649      4.8155865    
     41500   1.0056018      0.45522169     20.524116      22.487693      4.7091773    
     42000   0.9974455      0.46234787     20.515925      22.474394      4.945492     
     42500   1.0029834      0.44543419     20.517371      22.467233      4.7314807    
     43000   0.99751597     0.45323512     20.518245      22.467707      4.7916445    
     43500   1.0066003      0.4545639      20.507297      22.471714      4.8501822    
     44000   1.0033734      0.45485676     20.514848      22.474718      4.8165693    
     44500   1.0022228      0.45641377     20.514068      22.473769      4.7819946    
     45000   1.0028446      0.45251123     20.519428      22.476159      4.7438361    
     45500   1.0026567      0.45853622     20.512795      22.475269      4.6984989    
     46000   1.0025669      0.44937689     20.51594       22.46912       4.7745668    
     46500   1.0036593      0.4556004      20.512961      22.474003      4.790769     
     47000   0.99840649     0.45259823     20.51471       22.464871      4.8182016    
     47500   0.99809472     0.44709125     20.519332      22.463519      4.7710493    
     48000   1.0061609      0.45653781     20.514204      22.479936      4.8986199    
     48500   1.0060752      0.45370261     20.516063      22.478832      4.7866283    
     49000   1.0089281      0.45612643     20.516094      22.485565      4.8566574    
     49500   1.0109179      0.4511337      20.512762      22.480225      4.8015574    
     50000   1.005126       0.46122885     20.514804      22.483675      4.862949     
Loop time of 101.921 on 8 procs for 50000 steps with 32000 atoms

Performance: 508628.525 tau/day, 490.575 timesteps/s, 15.698 Matom-step/s
98.8% CPU use with 1 MPI tasks x 8 OpenMP threads

MPI task timing breakdown:
Section |  min time  |  avg time  |  max time  |%varavg| %total
---------------------------------------------------------------
Pair    | 0.83285    | 0.83285    | 0.83285    |   0.0 |  0.82
Bond    | 2.8654     | 2.8654     | 2.8654     |   0.0 |  2.81
Neigh   | 3.7514     | 3.7514     | 3.7514     |   0.0 |  3.68
Comm    | 22.267     | 22.267     | 22.267     |   0.0 | 21.85
Output  | 0.0044331  | 0.0044331  | 0.0044331  |   0.0 |  0.00
Modify  | 69.562     | 69.562     | 69.562     |   0.0 | 68.25
Other   |            | 2.639      |            |       |  2.59

Nlocal:          32000 ave       32000 max       32000 min
Histogram: 1 0 0 0 0 0 0 0 0 0
Nghost:           9506 ave        9506 max        9506 min
Histogram: 1 0 0 0 0 0 0 0 0 0
Neighs:         155600 ave      155600 max      155600 min
Histogram: 1 0 0 0 0 0 0 0 0 0

Total # of neighbors = 155600
Ave neighs/atom = 4.8625
Ave special neighs/atom = 1.98
Neighbor list builds = 12550
Dangerous builds = 0
Total wall time: 0:02:27
