LAMMPS (30 Mar 2026)
KOKKOS mode with Kokkos version 5.1.99 is enabled
  using double precision
  using view layout = legacy
  will use up to 1 GPU(s) per node
  using 8 OpenMP thread(s) per MPI task
package kokkos
package kokkos gpu/aware on newton on neigh half
# FENE beadspring benchmark

units           lj
atom_style      bond
special_bonds   fene

read_data       input/data.chain
Reading data file ...
  orthogonal box = (-16.796 -16.796 -16.796) to (16.796 16.796 16.796)
  1 by 1 by 1 MPI processor grid
  reading atoms ...
  32000 atoms
  reading velocities ...
  32000 velocities
  scanning bonds ...
  1 = max bonds/atom
  orthogonal box = (-16.796 -16.796 -16.796) to (16.796 16.796 16.796)
  1 by 1 by 1 MPI processor grid
  reading bonds ...
  31680 bonds
Finding 1-2 1-3 1-4 neighbors ...
  special bond factors lj:    0        1        1       
  special bond factors coul:  0        1        1       
     2 = max # of 1-2 neighbors
     2 = max # of special neighbors
  special bonds CPU = 0.100 seconds
  read_data CPU = 2.480 seconds

neighbor        0.4 bin
neigh_modify    every 1 delay 1

bond_style      fene
bond_coeff      1 30.0 1.5 1.0 1.0

pair_style      lj/cut 1.12
pair_modify     shift yes
pair_coeff      1 1 1.0 1.0 1.12

fix             1 all nve
fix             2 all langevin 1.0 1.0 10.0 904297

fix             3 all imd 8887 version 3 unwrap off nowait off trate 8 time off box off coordinates on velocities on forces on
Using fix imd with asynchronous I/O.

thermo          500
timestep        0.012

run             50000

CITE-CITE-CITE-CITE-CITE-CITE-CITE-CITE-CITE-CITE-CITE-CITE-CITE

Your simulation uses code contributions which should be cited:

- KOKKOS package: https://doi.org/10.1145/3731599.3767498

@inproceedings{Johansson25,
 author = {A. Johansson and E. Weinberg and C. Trott and M. McCarthy and S. Moore},
 title = {{LAMMPS-KOKKOS}: {P}erformance Portable Molecular Dynamics Across Exascale Architectures},
 year = 2025,
 booktitle = {Proceedings of the SC '25 Workshops of the International Conference for High Performance Computing,
  Networking, Storage and Analysis},
 pages = {1217–1232},
}

CITE-CITE-CITE-CITE-CITE-CITE-CITE-CITE-CITE-CITE-CITE-CITE-CITE

Generated 0 of 0 mixed pair_coeff terms from geometric mixing rule
WARNING: Communication cutoff 1.52 is shorter than a bond length based estimate of 1.855. This may lead to errors. (src/comm.cpp:694)
Neighbor list info ...
  update: every = 1 steps, delay = 1 steps, check = yes
  max neighbors/atom: 2000, page size: 100000
  master list distance cutoff = 1.52
  ghost atom cutoff = 1.52
  binsize = 1.52, bins = 23 23 23
  1 neighbor lists, perpetual/occasional/extra = 1 0 0
  (1) pair lj/cut/kk, perpetual
      attributes: half, newton on, kokkos_device
      pair build: half/bin/newton/kk/device
      stencil: half/bin/3d
      bin: kk/device
WARNING: Communication cutoff 1.52 is shorter than a bond length based estimate of 1.855. This may lead to errors. (src/comm.cpp:694)
Per MPI rank memory allocation (min/avg/max) = 29.98 | 29.98 | 29.98 Mbytes
   Step          Temp          E_pair         E_mol          TotEng         Press     
         0   0.97029772     0.44484087     20.494523      22.394765      4.6721833    
       500   0.98782163     0.44121984     20.509347      22.432253      4.7238276    
      1000   0.99127022     0.44643543     20.513017      22.446311      4.7616229    
      1500   0.99722758     0.45701586     20.512683      22.465494      4.8034025    
      2000   1.0036303      0.454007       20.514746      22.474151      4.750761     
      2500   1.0110495      0.4597144      20.518805      22.495047      4.8458123    
      3000   1.0151563      0.45499849     20.514837      22.492522      4.8052512    
      3500   1.0066044      0.45643579     20.515799      22.482095      4.7340316    
      4000   0.99790884     0.45293598     20.524541      22.474294      4.7560606    
      4500   1.0003406      0.45272542     20.521135      22.474325      4.7755501    
      5000   0.99967476     0.44939644     20.516302      22.465163      4.848719     
      5500   1.0012302      0.44466541     20.5124        22.458864      4.6639842    
      6000   0.99860452     0.45411533     20.516         22.467975      4.8544262    
      6500   0.99491493     0.45187125     20.507466      22.451663      4.674828     
      7000   0.99815763     0.4520514      20.512211      22.461452      4.7880893    
      7500   0.99980695     0.45584019     20.508455      22.463959      4.7363343    
      8000   0.9979346      0.45018878     20.515437      22.462481      4.7263018    
      8500   1.0091111      0.45533335     20.513218      22.48217       4.7723072    
      9000   1.0074814      0.45305232     20.51162       22.475847      4.812281     
      9500   1.0026837      0.45626755     20.517076      22.477322      4.7558731    
     10000   1.0027665      0.45460943     20.517788      22.476501      4.7723524    
     10500   1.0048749      0.45513769     20.513293      22.475696      4.7577748    
     11000   1.0145031      0.44983227     20.511749      22.483288      4.7743167    
     11500   1.0037273      0.45950548     20.5234        22.48845       4.7658655    
     12000   0.9995304      0.45588815     20.516571      22.471708      4.7597675    
     12500   1.0017228      0.46004771     20.509486      22.472071      4.8302697    
     13000   0.99755023     0.45630661     20.513563      22.466148      4.752226     
     13500   0.99740841     0.45513827     20.512936      22.46414       4.8296293    
     14000   0.9974659      0.45494974     20.523099      22.474201      4.8337457    
     14500   1.0000198      0.4536196      20.517393      22.470995      4.7866761    
     15000   1.0043695      0.45168713     20.509305      22.467499      4.7316304    
     15500   1.0065865      0.45665216     20.515131      22.481616      4.7787036    
     16000   1.0018747      0.4558712      20.512227      22.470863      4.7861833    
     16500   0.99287026     0.45192291     20.509668      22.45085       4.6671898    
     17000   0.99728558     0.45338427     20.512715      22.461981      4.7608489    
     17500   0.99664162     0.45364299     20.521738      22.470297      4.7407798    
     18000   0.99880716     0.45143482     20.513686      22.463285      4.7619113    
     18500   1.0035273      0.455469       20.509666      22.470379      4.8895836    
     19000   0.99904353     0.45508554     20.517921      22.471525      4.7727996    
     19500   1.0008224      0.45349925     20.514244      22.46893       4.8212184    
     20000   1.0055618      0.4493091      20.522386      22.47999       4.7521704    
     20500   1.0032433      0.45663699     20.516857      22.478312      4.7889285    
     21000   1.0058553      0.45661772     20.518261      22.483614      4.807894     
     21500   1.0080234      0.45641618     20.513648      22.482052      4.7814653    
     22000   0.99573319     0.44696232     20.513663      22.454179      4.7545649    
     22500   1.0083542      0.45356444     20.511497      22.477546      4.7361926    
     23000   0.99891066     0.45569388     20.511273      22.465286      4.7753721    
     23500   1.0046576      0.44709861     20.516723      22.470761      4.7892817    
     24000   1.0039293      0.45209092     20.511732      22.46967       4.7948242    
     24500   1.0011855      0.45412        20.514103      22.469955      4.9337843    
     25000   0.99620168     0.45101833     20.523639      22.468913      4.7120818    
     25500   0.99836973     0.45599321     20.511761      22.465262      4.7864874    
     26000   0.9958348      0.46115355     20.51821       22.473069      4.771102     
     26500   1.0034081      0.45488251     20.514108      22.474056      4.816583     
     27000   1.003962       0.45630465     20.516078      22.478279      4.8267819    
     27500   1.0049459      0.45243352     20.515173      22.474978      4.7333643    
     28000   1.0019938      0.4533703      20.512757      22.469071      4.7735709    
     28500   1.0043534      0.4575654      20.511761      22.475809      4.7657602    
     29000   0.99589902     0.45500386     20.514177      22.462982      4.8338691    
     29500   0.99960103     0.44817251     20.516399      22.463926      4.7820471    
     30000   1.009115       0.45231781     20.516724      22.482667      4.7044761    
     30500   1.0072267      0.45101252     20.516869      22.478674      4.899036     
     31000   0.99945918     0.45440116     20.513215      22.466758      4.7632207    
     31500   0.99970317     0.45821369     20.515263      22.472984      4.726906     
     32000   1.0029931      0.45340816     20.514573      22.472424      4.8549343    
     32500   1.002028       0.45027728     20.514264      22.467536      4.8022051    
     33000   0.99662478     0.45183009     20.513408      22.460128      4.7983067    
     33500   0.99857344     0.46183306     20.50829       22.467936      4.8827764    
     34000   1.0030666      0.44869736     20.510707      22.463957      4.7655169    
     34500   0.99539783     0.45259369     20.512856      22.4585        4.7722461    
     35000   1.0050644      0.45743116     20.510569      22.47555       4.772618     
     35500   1.0051527      0.45477538     20.513456      22.475913      4.8248977    
     36000   1.0037635      0.45292849     20.511607      22.470134      4.8725984    
     36500   0.99773953     0.45874676     20.51564       22.470949      4.8584802    
     37000   0.99874435     0.45553949     20.518893      22.472502      4.7179191    
     37500   1.0028439      0.45636819     20.523039      22.483626      4.8380571    
     38000   1.0036025      0.45288402     20.519762      22.478002      4.7341465    
     38500   0.99965428     0.45727303     20.523305      22.480012      4.870942     
     39000   1.0033969      0.45522297     20.508918      22.46919       4.8240522    
     39500   1.0086994      0.45119279     20.51731       22.481505      4.813981     
     40000   1.0068812      0.45834829     20.510785      22.479408      4.8889092    
     40500   1.0111188      0.44912154     20.520696      22.486448      4.7195002    
     41000   0.99631591     0.45060182     20.520331      22.46536       4.753678     
     41500   1.005719       0.44771211     20.517309      22.473552      4.8382152    
     42000   0.9936539      0.45799255     20.517849      22.466275      4.8469571    
     42500   0.99980303     0.45919194     20.517105      22.475955      4.8595453    
     43000   0.99845321     0.45767265     20.51046       22.465766      4.8634896    
     43500   1.0017331      0.45682591     20.522712      22.482091      4.7887173    
     44000   1.0020771      0.46112903     20.509954      22.474151      4.8454082    
     44500   1.0074259      0.44622911     20.520062      22.477383      4.7679214    
     45000   1.0008848      0.45125409     20.513193      22.465727      4.7120816    
     45500   0.99383825     0.45557353     20.516191      22.462475      4.7395796    
     46000   0.99794154     0.45201535     20.519073      22.467954      4.8747702    
     46500   1.0006941      0.45143916     20.519321      22.471755      4.6954927    
     47000   0.99468997     0.45940661     20.513471      22.464866      4.731809     
     47500   0.99843661     0.45468247     20.511375      22.463665      4.755438     
     48000   1.0002687      0.45366541     20.517295      22.471317      4.7104246    
     48500   0.99673344     0.44827329     20.520602      22.463929      4.7497462    
     49000   0.99656808     0.4490999      20.512269      22.456174      4.7645715    
     49500   0.99670215     0.45110367     20.514937      22.461048      4.7754713    
     50000   1.0001543      0.45505507     20.514111      22.46935       4.8223051    
Loop time of 57.7394 on 8 procs for 50000 steps with 32000 atoms

Performance: 897827.226 tau/day, 865.960 timesteps/s, 27.711 Matom-step/s
98.2% CPU use with 1 MPI tasks x 8 OpenMP threads

MPI task timing breakdown:
Section |  min time  |  avg time  |  max time  |%varavg| %total
---------------------------------------------------------------
Pair    | 0.8483     | 0.8483     | 0.8483     |   0.0 |  1.47
Bond    | 2.9564     | 2.9564     | 2.9564     |   0.0 |  5.12
Neigh   | 3.903      | 3.903      | 3.903      |   0.0 |  6.76
Comm    | 22.847     | 22.847     | 22.847     |   0.0 | 39.57
Output  | 0.0041196  | 0.0041196  | 0.0041196  |   0.0 |  0.01
Modify  | 24.497     | 24.497     | 24.497     |   0.0 | 42.43
Other   |            | 2.684      |            |       |  4.65

Nlocal:          32000 ave       32000 max       32000 min
Histogram: 1 0 0 0 0 0 0 0 0 0
Nghost:           9452 ave        9452 max        9452 min
Histogram: 1 0 0 0 0 0 0 0 0 0
Neighs:         155637 ave      155637 max      155637 min
Histogram: 1 0 0 0 0 0 0 0 0 0

Total # of neighbors = 155637
Ave neighs/atom = 4.8636563
Ave special neighs/atom = 1.98
Neighbor list builds = 12544
Dangerous builds = 0
Total wall time: 0:01:43
