LAMMPS (30 Mar 2026)
KOKKOS mode with Kokkos version 5.1.99 is enabled
  using double precision
  using view layout = legacy
  will use up to 1 GPU(s) per node
  using 8 OpenMP thread(s) per MPI task
package kokkos
package kokkos gpu/aware on newton on neigh half
# FENE beadspring benchmark

units           lj
atom_style      bond
special_bonds   fene

read_data       input/data.chain
Reading data file ...
  orthogonal box = (-16.796 -16.796 -16.796) to (16.796 16.796 16.796)
  1 by 1 by 1 MPI processor grid
  reading atoms ...
  32000 atoms
  reading velocities ...
  32000 velocities
  scanning bonds ...
  1 = max bonds/atom
  orthogonal box = (-16.796 -16.796 -16.796) to (16.796 16.796 16.796)
  1 by 1 by 1 MPI processor grid
  reading bonds ...
  31680 bonds
Finding 1-2 1-3 1-4 neighbors ...
  special bond factors lj:    0        1        1       
  special bond factors coul:  0        1        1       
     2 = max # of 1-2 neighbors
     2 = max # of special neighbors
  special bonds CPU = 0.102 seconds
  read_data CPU = 2.468 seconds

neighbor        0.4 bin
neigh_modify    every 1 delay 1

bond_style      fene
bond_coeff      1 30.0 1.5 1.0 1.0

pair_style      lj/cut 1.12
pair_modify     shift yes
pair_coeff      1 1 1.0 1.0 1.12

fix             1 all nve
fix             2 all langevin 1.0 1.0 10.0 904297

fix             3 all imd 8887 version 3 unwrap off nowait off trate 500 time off box off coordinates on velocities on forces on
Using fix imd with asynchronous I/O.

thermo          500
timestep        0.012

run             50000

CITE-CITE-CITE-CITE-CITE-CITE-CITE-CITE-CITE-CITE-CITE-CITE-CITE

Your simulation uses code contributions which should be cited:

- KOKKOS package: https://doi.org/10.1145/3731599.3767498

@inproceedings{Johansson25,
 author = {A. Johansson and E. Weinberg and C. Trott and M. McCarthy and S. Moore},
 title = {{LAMMPS-KOKKOS}: {P}erformance Portable Molecular Dynamics Across Exascale Architectures},
 year = 2025,
 booktitle = {Proceedings of the SC '25 Workshops of the International Conference for High Performance Computing,
  Networking, Storage and Analysis},
 pages = {1217–1232},
}

CITE-CITE-CITE-CITE-CITE-CITE-CITE-CITE-CITE-CITE-CITE-CITE-CITE

Generated 0 of 0 mixed pair_coeff terms from geometric mixing rule
WARNING: Communication cutoff 1.52 is shorter than a bond length based estimate of 1.855. This may lead to errors. (src/comm.cpp:694)
Neighbor list info ...
  update: every = 1 steps, delay = 1 steps, check = yes
  max neighbors/atom: 2000, page size: 100000
  master list distance cutoff = 1.52
  ghost atom cutoff = 1.52
  binsize = 1.52, bins = 23 23 23
  1 neighbor lists, perpetual/occasional/extra = 1 0 0
  (1) pair lj/cut/kk, perpetual
      attributes: half, newton on, kokkos_device
      pair build: half/bin/newton/kk/device
      stencil: half/bin/3d
      bin: kk/device
WARNING: Communication cutoff 1.52 is shorter than a bond length based estimate of 1.855. This may lead to errors. (src/comm.cpp:694)
Per MPI rank memory allocation (min/avg/max) = 29.98 | 29.98 | 29.98 Mbytes
   Step          Temp          E_pair         E_mol          TotEng         Press     
         0   0.97029772     0.44484087     20.494523      22.394765      4.6721833    
       500   0.98109642     0.45144119     20.508809      22.431849      4.8167501    
      1000   0.98289187     0.45713056     20.513882      22.445304      4.7743182    
      1500   0.99241364     0.44987978     20.508368      22.446822      4.7173856    
      2000   0.99328918     0.45730566     20.513301      22.460494      4.7359499    
      2500   0.99570987     0.45955519     20.517461      22.470534      4.8482618    
      3000   0.99834121     0.45070568     20.519346      22.467517      4.8244156    
      3500   1.0075495      0.45418422     20.509248      22.474709      4.7466496    
      4000   0.99796321     0.45803608     20.517965      22.472899      4.7962413    
      4500   1.0044287      0.45304782     20.515234      22.474878      4.8089265    
      5000   0.99433388     0.45377759     20.520499      22.465731      4.8117145    
      5500   1.0082843      0.44926408     20.513727      22.47537       4.8081618    
      6000   0.99480595     0.45807242     20.516983      22.467218      4.8464056    
      6500   0.99498964     0.45543396     20.518196      22.466068      4.72154      
      7000   0.99963038     0.45398006     20.514753      22.468132      4.7249688    
      7500   1.0059868      0.45155022     20.514242      22.474725      4.8567597    
      8000   0.99784281     0.44906369     20.517404      22.463186      4.7789086    
      8500   0.99315321     0.45156964     20.519896      22.461149      4.7087955    
      9000   0.99615124     0.44876899     20.516856      22.459805      4.8157523    
      9500   1.0022202      0.4541636      20.514686      22.472133      4.7574212    
     10000   0.99980227     0.45171636     20.523214      22.474586      4.7577001    
     10500   0.99336323     0.45673747     20.518658      22.465393      4.8608189    
     11000   1.0000988      0.45333968     20.517246      22.470687      4.7131093    
     11500   1.00573        0.45723149     20.513842      22.479622      4.8397322    
     12000   1.0084724      0.44839948     20.504901      22.465962      4.6850502    
     12500   1.004667       0.44812076     20.508203      22.463277      4.7638636    
     13000   1.0030382      0.45457692     20.506591      22.465678      4.8247852    
     13500   0.99618448     0.45944789     20.516574      22.470251      4.8699954    
     14000   0.99498894     0.45795591     20.515154      22.465547      4.7624312    
     14500   0.99924664     0.45464659     20.513744      22.467214      4.8236222    
     15000   1.0067542      0.4513717      20.513707      22.475163      4.7401103    
     15500   1.0031949      0.45215842     20.521845      22.478749      4.7431711    
     16000   1.0022871      0.44538129     20.511208      22.459973      4.8557417    
     16500   1.0021649      0.44757325     20.523313      22.474087      4.8283559    
     17000   1.0048096      0.4572962      20.520566      22.485029      4.7636255    
     17500   1.0035463      0.45645933     20.510827      22.472559      4.8091254    
     18000   0.99677285     0.45627097     20.517992      22.469375      4.8229389    
     18500   1.0031917      0.45024465     20.511085      22.466071      4.761175     
     19000   1.002382       0.45685594     20.513813      22.474195      4.7699513    
     19500   1.0023997      0.4539145      20.516893      22.47436       4.7668638    
     20000   1.0003955      0.4497155      20.518627      22.468889      4.7539866    
     20500   1.0010265      0.45581817     20.514538      22.471849      4.8026654    
     21000   1.008614       0.45070244     20.517762      22.481338      4.7903504    
     21500   1.0009969      0.45575572     20.520177      22.477381      4.7209762    
     22000   1.0036111      0.45529485     20.51659       22.477254      4.8177629    
     22500   0.99813135     0.45578309     20.524824      22.477757      4.7775083    
     23000   1.0065472      0.45009401     20.513869      22.473737      4.796409     
     23500   1.0024607      0.45161592     20.511088      22.466348      4.7842321    
     24000   0.99715853     0.45235513     20.518242      22.466289      4.7737589    
     24500   0.99925511     0.46563486     20.514762      22.479233      4.8834393    
     25000   1.003358       0.45477305     20.51755       22.477313      4.803843     
     25500   1.006092       0.45367082     20.51367       22.476432      4.7651491    
     26000   0.99619946     0.44739146     20.520863      22.462507      4.7660562    
     26500   0.99740591     0.45770109     20.512101      22.465864      4.7778198    
     27000   0.99613226     0.4548105      20.521163      22.470125      4.8201959    
     27500   1.0059016      0.45599829     20.518397      22.483201      4.8079106    
     28000   1.0057751      0.45470222     20.509053      22.472371      4.8180214    
     28500   1.0039982      0.45977571     20.519443      22.485169      4.8368348    
     29000   1.001989       0.45466551     20.515006      22.472608      4.7945792    
     29500   1.0093297      0.4598223      20.512985      22.486754      4.8679489    
     30000   1.0036788      0.45822307     20.512629      22.476324      4.7913737    
     30500   1.0021383      0.45366088     20.511637      22.468459      4.8239415    
     31000   1.0037721      0.45454408     20.512828      22.472983      4.8286963    
     31500   1.0008075      0.45190462     20.51442       22.467489      4.7185046    
     32000   0.99486458     0.44053924     20.510898      22.443688      4.7397143    
     32500   0.99648629     0.45314171     20.514649      22.462473      4.73113      
     33000   1.0003699      0.4490873      20.51109       22.460685      4.796927     
     33500   0.99516178     0.44788433     20.520357      22.460937      4.7753883    
     34000   0.9981169      0.44826274     20.520687      22.466078      4.7545109    
     34500   1.0027448      0.45060791     20.521095      22.475773      4.7017449    
     35000   1.0064676      0.45451701     20.51687       22.481042      4.8180967    
     35500   1.0033333      0.4504464      20.510484      22.465883      4.7543887    
     36000   0.99886765     0.45823994     20.518863      22.475358      4.8670521    
     36500   1.0028457      0.45722506     20.528391      22.489838      4.845766     
     37000   1.0091616      0.45099812     20.516663      22.481356      4.7812612    
     37500   1.0001262      0.45183236     20.516863      22.468837      4.7981938    
     38000   0.99660135     0.4553604      20.505346      22.455561      4.7687642    
     38500   0.99407938     0.45546437     20.514552      22.461089      4.6709754    
     39000   0.99554478     0.45827477     20.514952      22.466498      4.8766873    
     39500   1.002942       0.45293997     20.516247      22.473553      4.8218221    
     40000   1.006367       0.44781404     20.510485      22.467802      4.6579195    
     40500   1.0063437      0.45201848     20.514238      22.475725      4.8211814    
     41000   1.0020509      0.45461632     20.511814      22.469459      4.7850022    
     41500   1.0030772      0.45830917     20.512571      22.475449      4.6760214    
     42000   1.0055936      0.44709493     20.518607      22.474045      4.6903013    
     42500   1.0036723      0.4537913      20.517117      22.476369      4.8229426    
     43000   1.0009709      0.45334825     20.514483      22.469241      4.8500046    
     43500   1.004081       0.44985695     20.517758      22.47369       4.8714788    
     44000   1.0005662      0.45287915     20.51951       22.473191      4.7675324    
     44500   0.99816696     0.45427742     20.515753      22.467234      4.8056835    
     45000   0.99996892     0.45707697     20.5176        22.474583      4.9112505    
     45500   1.0010949      0.45166272     20.512963      22.466221      4.800518     
     46000   0.99390103     0.45305782     20.520073      22.463936      4.7629734    
     46500   1.0008081      0.46085646     20.509581      22.471603      4.7949314    
     47000   1.0095998      0.45537078     20.512631      22.482354      4.8283431    
     47500   1.0016779      0.45451125     20.516644      22.473625      4.8405221    
     48000   1.0046253      0.45342973     20.51491       22.47523       4.8758292    
     48500   0.99769811     0.44983269     20.504579      22.450912      4.7589496    
     49000   1.0014022      0.45088376     20.511519      22.464459      4.7869987    
     49500   1.0022925      0.44932026     20.512179      22.464891      4.748175     
     50000   1.0036861      0.45551039     20.51652       22.477513      4.8327185    
Loop time of 34.0261 on 8 procs for 50000 steps with 32000 atoms

Performance: 1523535.593 tau/day, 1469.459 timesteps/s, 47.023 Matom-step/s
98.6% CPU use with 1 MPI tasks x 8 OpenMP threads

MPI task timing breakdown:
Section |  min time  |  avg time  |  max time  |%varavg| %total
---------------------------------------------------------------
Pair    | 0.80243    | 0.80243    | 0.80243    |   0.0 |  2.36
Bond    | 2.8218     | 2.8218     | 2.8218     |   0.0 |  8.29
Neigh   | 3.6836     | 3.6836     | 3.6836     |   0.0 | 10.83
Comm    | 22.133     | 22.133     | 22.133     |   0.0 | 65.05
Output  | 0.0058442  | 0.0058442  | 0.0058442  |   0.0 |  0.02
Modify  | 2.0276     | 2.0276     | 2.0276     |   0.0 |  5.96
Other   |            | 2.552      |            |       |  7.50

Nlocal:          32000 ave       32000 max       32000 min
Histogram: 1 0 0 0 0 0 0 0 0 0
Nghost:           9561 ave        9561 max        9561 min
Histogram: 1 0 0 0 0 0 0 0 0 0
Neighs:         155606 ave      155606 max      155606 min
Histogram: 1 0 0 0 0 0 0 0 0 0

Total # of neighbors = 155606
Ave neighs/atom = 4.8626875
Ave special neighs/atom = 1.98
Neighbor list builds = 12547
Dangerous builds = 0
Total wall time: 0:01:19
