LAMMPS (30 Mar 2026)
KOKKOS mode with Kokkos version 5.1.99 is enabled
  using double precision
  using view layout = legacy
  will use up to 1 GPU(s) per node
  using 8 OpenMP thread(s) per MPI task
package kokkos
package kokkos gpu/aware on newton on neigh half
# FENE beadspring benchmark

units           lj
atom_style      bond
special_bonds   fene

read_data       input/data.chain
Reading data file ...
  orthogonal box = (-16.796 -16.796 -16.796) to (16.796 16.796 16.796)
  1 by 1 by 1 MPI processor grid
  reading atoms ...
  32000 atoms
  reading velocities ...
  32000 velocities
  scanning bonds ...
  1 = max bonds/atom
  orthogonal box = (-16.796 -16.796 -16.796) to (16.796 16.796 16.796)
  1 by 1 by 1 MPI processor grid
  reading bonds ...
  31680 bonds
Finding 1-2 1-3 1-4 neighbors ...
  special bond factors lj:    0        1        1       
  special bond factors coul:  0        1        1       
     2 = max # of 1-2 neighbors
     2 = max # of special neighbors
  special bonds CPU = 0.098 seconds
  read_data CPU = 2.449 seconds

neighbor        0.4 bin
neigh_modify    every 1 delay 1

bond_style      fene
bond_coeff      1 30.0 1.5 1.0 1.0

pair_style      lj/cut 1.12
pair_modify     shift yes
pair_coeff      1 1 1.0 1.0 1.12

fix             1 all nve
fix             2 all langevin 1.0 1.0 10.0 904297

fix             3 all imd 8887 version 3 unwrap off nowait off trate 500 time off box off coordinates on velocities on forces on
Using fix imd with asynchronous I/O.

thermo          500
timestep        0.012

run             50000

CITE-CITE-CITE-CITE-CITE-CITE-CITE-CITE-CITE-CITE-CITE-CITE-CITE

Your simulation uses code contributions which should be cited:

- KOKKOS package: https://doi.org/10.1145/3731599.3767498

@inproceedings{Johansson25,
 author = {A. Johansson and E. Weinberg and C. Trott and M. McCarthy and S. Moore},
 title = {{LAMMPS-KOKKOS}: {P}erformance Portable Molecular Dynamics Across Exascale Architectures},
 year = 2025,
 booktitle = {Proceedings of the SC '25 Workshops of the International Conference for High Performance Computing,
  Networking, Storage and Analysis},
 pages = {1217–1232},
}

CITE-CITE-CITE-CITE-CITE-CITE-CITE-CITE-CITE-CITE-CITE-CITE-CITE

Generated 0 of 0 mixed pair_coeff terms from geometric mixing rule
WARNING: Communication cutoff 1.52 is shorter than a bond length based estimate of 1.855. This may lead to errors. (src/comm.cpp:694)
Neighbor list info ...
  update: every = 1 steps, delay = 1 steps, check = yes
  max neighbors/atom: 2000, page size: 100000
  master list distance cutoff = 1.52
  ghost atom cutoff = 1.52
  binsize = 1.52, bins = 23 23 23
  1 neighbor lists, perpetual/occasional/extra = 1 0 0
  (1) pair lj/cut/kk, perpetual
      attributes: half, newton on, kokkos_device
      pair build: half/bin/newton/kk/device
      stencil: half/bin/3d
      bin: kk/device
WARNING: Communication cutoff 1.52 is shorter than a bond length based estimate of 1.855. This may lead to errors. (src/comm.cpp:694)
Per MPI rank memory allocation (min/avg/max) = 29.98 | 29.98 | 29.98 Mbytes
   Step          Temp          E_pair         E_mol          TotEng         Press     
         0   0.97029772     0.44484087     20.494523      22.394765      4.6721833    
       500   0.991085       0.44798425     20.511732      22.446297      4.7432327    
      1000   0.99539261     0.44542366     20.519849      22.458315      4.6928397    
      1500   0.99706532     0.45139447     20.508907      22.455853      4.7821346    
      2000   0.99074535     0.45118171     20.5097        22.446954      4.7930864    
      2500   0.99789101     0.45379561     20.51665       22.467235      4.7540104    
      3000   1.0056797      0.45315203     20.502784      22.464408      4.7672411    
      3500   1.0119729      0.45496488     20.516405      22.489282      4.8547421    
      4000   1.0107975      0.45417435     20.508698      22.479021      4.8468782    
      4500   1.0061268      0.45153602     20.515451      22.47613       4.8113425    
      5000   0.9959836      0.45829508     20.517811      22.470035      4.8075575    
      5500   1.0047952      0.45710643     20.519214      22.483466      4.8376296    
      6000   1.0036909      0.4456833      20.516726      22.467898      4.7360444    
      6500   1.0065494      0.45537667     20.523475      22.488629      4.6913798    
      7000   1.0023046      0.45784675     20.519426      22.480683      4.8122559    
      7500   1.0020374      0.45478479     20.518115      22.475909      4.6768218    
      8000   1.0040835      0.45772787     20.509359      22.473165      4.9480684    
      8500   1.0040415      0.45856933     20.509131      22.473716      4.8065073    
      9000   1.0015117      0.45481565     20.511541      22.468577      4.7571451    
      9500   1.0144541      0.45292746     20.51596       22.490521      4.8094033    
     10000   1.0084369      0.45145495     20.523071      22.487134      4.7896098    
     10500   1.0023739      0.45154523     20.51655       22.47161       4.8459765    
     11000   1.0026696      0.45695901     20.519198      22.480115      4.7785502    
     11500   1.003055       0.45703981     20.515945      22.477521      4.8406204    
     12000   1.0059672      0.44804736     20.518846      22.475797      4.783306     
     12500   1.0068132      0.45755078     20.516047      22.483771      4.6871562    
     13000   0.99882147     0.45245561     20.519352      22.469993      4.8446652    
     13500   1.0043342      0.44987084     20.516732      22.473057      4.8415774    
     14000   1.00868        0.45500554     20.519005      22.486983      4.8191149    
     14500   1.0030423      0.45635275     20.521098      22.481967      4.7702105    
     15000   1.0048803      0.45815603     20.514888      22.480317      4.8124662    
     15500   0.99902592     0.45484673     20.518774      22.472112      4.8448001    
     16000   0.99871011     0.45310427     20.522611      22.473734      4.7227163    
     16500   1.0044017      0.45426495     20.512178      22.472998      4.8041627    
     17000   1.0027702      0.45104742     20.514859      22.470015      4.709523     
     17500   1.0024701      0.45558194     20.516467      22.475707      4.8124461    
     18000   1.0029038      0.45434882     20.514241      22.472899      4.8187673    
     18500   0.99763716     0.45619436     20.523045      22.475649      4.8312083    
     19000   0.99432571     0.45633533     20.515226      22.463004      4.7043944    
     19500   0.99676571     0.45532071     20.519608      22.47003       4.7609066    
     20000   0.99821278     0.45883628     20.515058      22.471166      4.7944187    
     20500   1.0014123      0.45127461     20.518462      22.471808      4.7563274    
     21000   1.0078285      0.45350268     20.523189      22.488387      4.7545534    
     21500   1.0085444      0.458801       20.517         22.48857       4.8326689    
     22000   1.0044123      0.45278201     20.506179      22.465532      4.7714243    
     22500   0.99840799     0.45348752     20.516958      22.468011      4.7594638    
     23000   1.0037347      0.45277309     20.514789      22.473117      4.8386369    
     23500   1.0008287      0.46171388     20.514639      22.477549      4.7601863    
     24000   1.0066476      0.45703098     20.512565      22.47952       4.8092201    
     24500   1.001358       0.44735307     20.517795      22.467138      4.6745901    
     25000   1.0026556      0.4562155      20.521844      22.481996      4.7965563    
     25500   1.0014394      0.45618136     20.511833      22.470127      4.7862124    
     26000   0.9995645      0.45707156     20.518383      22.474754      4.7991621    
     26500   1.0056971      0.45701319     20.51553       22.481041      4.7644795    
     27000   1.0056487      0.45593671     20.50962       22.473983      4.8002275    
     27500   0.99624435     0.45317629     20.513223      22.460719      4.7636705    
     28000   0.9942318      0.45002109     20.510829      22.452151      4.7631556    
     28500   0.99161509     0.45420432     20.515593      22.457174      4.7739918    
     29000   0.99559918     0.45347975     20.517814      22.464646      4.7699431    
     29500   0.99599408     0.45726364     20.508302      22.45951       4.7956563    
     30000   0.99632249     0.45833362     20.514176      22.466947      4.7918626    
     30500   1.0004862      0.45329075     20.512668      22.466641      4.7991477    
     31000   1.0020725      0.45200013     20.515722      22.470784      4.761089     
     31500   0.99273897     0.45977848     20.507226      22.456066      4.8144748    
     32000   1.0006757      0.45395485     20.511476      22.466397      4.8691151    
     32500   0.99201245     0.45124569     20.513838      22.453056      4.7409197    
     33000   0.99988465     0.4509528      20.51576       22.466492      4.7888318    
     33500   1.0084202      0.44978703     20.510979      22.473349      4.698887     
     34000   1.0035079      0.45543918     20.520014      22.480668      4.7898633    
     34500   1.0041098      0.45630911     20.520755      22.483182      4.8385781    
     35000   0.99795617     0.45999563     20.511684      22.468567      4.8658015    
     35500   1.0020299      0.45088967     20.513518      22.467405      4.7376918    
     36000   0.99304363     0.45392208     20.517325      22.460766      4.8342122    
     36500   0.99807335     0.45208702     20.516617      22.465768      4.7736202    
     37000   1.0003732      0.45135997     20.516925      22.468798      4.7687686    
     37500   1.0021463      0.45414886     20.512661      22.469983      4.8023146    
     38000   1.0041911      0.45291793     20.519576      22.478733      4.8319714    
     38500   1.0028505      0.45983609     20.506489      22.470553      4.8021928    
     39000   1.0018225      0.45339709     20.516821      22.472905      4.8172327    
     39500   1.0003486      0.45534993     20.515298      22.471124      4.7940138    
     40000   1.0004794      0.44840177     20.517039      22.466113      4.7560967    
     40500   1.0063245      0.45410546     20.51102       22.474565      4.8278812    
     41000   0.99863371     0.44988095     20.513655      22.461439      4.7318299    
     41500   0.99727376     0.44914713     20.511596      22.456607      4.6918694    
     42000   1.0009711      0.44927041     20.513605      22.464285      4.7393488    
     42500   1.0038457      0.44963943     20.51844       22.473801      4.772409     
     43000   0.99599771     0.45229064     20.514083      22.460324      4.7716       
     43500   1.0001999      0.45640592     20.514445      22.471104      4.8336037    
     44000   1.0066206      0.45483887     20.514824      22.479547      4.6591728    
     44500   1.0056331      0.45844978     20.511826      22.478679      4.7691678    
     45000   1.0070583      0.45364659     20.514615      22.478802      4.8001032    
     45500   1.003742       0.45684669     20.512747      22.475159      4.8242587    
     46000   1.0069957      0.45421759     20.513555      22.478219      4.7793007    
     46500   1.0040428      0.46160794     20.515447      22.483072      4.871084     
     47000   1.0085551      0.44604801     20.518324      22.477157      4.732583     
     47500   0.99981217     0.45460013     20.50919       22.463461      4.8313609    
     48000   0.99709487     0.45577577     20.51471       22.466081      4.7447763    
     48500   1.0031726      0.45856872     20.509375      22.472655      4.7930535    
     49000   1.0039188      0.44929856     20.518999      22.474128      4.8215234    
     49500   0.99706114     0.4530609      20.517544      22.46615       4.7869144    
     50000   0.99821076     0.45520931     20.525023      22.477502      4.886447     
Loop time of 33.7172 on 8 procs for 50000 steps with 32000 atoms

Performance: 1537493.666 tau/day, 1482.922 timesteps/s, 47.454 Matom-step/s
98.7% CPU use with 1 MPI tasks x 8 OpenMP threads

MPI task timing breakdown:
Section |  min time  |  avg time  |  max time  |%varavg| %total
---------------------------------------------------------------
Pair    | 0.79705    | 0.79705    | 0.79705    |   0.0 |  2.36
Bond    | 2.7929     | 2.7929     | 2.7929     |   0.0 |  8.28
Neigh   | 3.6687     | 3.6687     | 3.6687     |   0.0 | 10.88
Comm    | 21.917     | 21.917     | 21.917     |   0.0 | 65.00
Output  | 0.0052393  | 0.0052393  | 0.0052393  |   0.0 |  0.02
Modify  | 1.9941     | 1.9941     | 1.9941     |   0.0 |  5.91
Other   |            | 2.543      |            |       |  7.54

Nlocal:          32000 ave       32000 max       32000 min
Histogram: 1 0 0 0 0 0 0 0 0 0
Nghost:           9440 ave        9440 max        9440 min
Histogram: 1 0 0 0 0 0 0 0 0 0
Neighs:         155761 ave      155761 max      155761 min
Histogram: 1 0 0 0 0 0 0 0 0 0

Total # of neighbors = 155761
Ave neighs/atom = 4.8675312
Ave special neighs/atom = 1.98
Neighbor list builds = 12552
Dangerous builds = 0
Total wall time: 0:01:18
