LAMMPS (30 Mar 2026)
KOKKOS mode with Kokkos version 5.1.99 is enabled
  using double precision
  using view layout = legacy
  will use up to 1 GPU(s) per node
  using 8 OpenMP thread(s) per MPI task
package kokkos
package kokkos gpu/aware on newton on neigh half
# FENE beadspring benchmark

units           lj
atom_style      bond
special_bonds   fene

read_data       input/data.chain
Reading data file ...
  orthogonal box = (-16.796 -16.796 -16.796) to (16.796 16.796 16.796)
  1 by 1 by 1 MPI processor grid
  reading atoms ...
  32000 atoms
  reading velocities ...
  32000 velocities
  scanning bonds ...
  1 = max bonds/atom
  orthogonal box = (-16.796 -16.796 -16.796) to (16.796 16.796 16.796)
  1 by 1 by 1 MPI processor grid
  reading bonds ...
  31680 bonds
Finding 1-2 1-3 1-4 neighbors ...
  special bond factors lj:    0        1        1       
  special bond factors coul:  0        1        1       
     2 = max # of 1-2 neighbors
     2 = max # of special neighbors
  special bonds CPU = 0.100 seconds
  read_data CPU = 2.454 seconds

neighbor        0.4 bin
neigh_modify    every 1 delay 1

bond_style      fene
bond_coeff      1 30.0 1.5 1.0 1.0

pair_style      lj/cut 1.12
pair_modify     shift yes
pair_coeff      1 1 1.0 1.0 1.12

fix             1 all nve
fix             2 all langevin 1.0 1.0 10.0 904297

fix             3 all imd 8887 version 3 unwrap off nowait off trate 50 time off box off coordinates on velocities off forces off
Using fix imd with asynchronous I/O.

thermo          500
timestep        0.012

run             50000

CITE-CITE-CITE-CITE-CITE-CITE-CITE-CITE-CITE-CITE-CITE-CITE-CITE

Your simulation uses code contributions which should be cited:

- KOKKOS package: https://doi.org/10.1145/3731599.3767498

@inproceedings{Johansson25,
 author = {A. Johansson and E. Weinberg and C. Trott and M. McCarthy and S. Moore},
 title = {{LAMMPS-KOKKOS}: {P}erformance Portable Molecular Dynamics Across Exascale Architectures},
 year = 2025,
 booktitle = {Proceedings of the SC '25 Workshops of the International Conference for High Performance Computing,
  Networking, Storage and Analysis},
 pages = {1217–1232},
}

CITE-CITE-CITE-CITE-CITE-CITE-CITE-CITE-CITE-CITE-CITE-CITE-CITE

Generated 0 of 0 mixed pair_coeff terms from geometric mixing rule
WARNING: Communication cutoff 1.52 is shorter than a bond length based estimate of 1.855. This may lead to errors. (src/comm.cpp:694)
Neighbor list info ...
  update: every = 1 steps, delay = 1 steps, check = yes
  max neighbors/atom: 2000, page size: 100000
  master list distance cutoff = 1.52
  ghost atom cutoff = 1.52
  binsize = 1.52, bins = 23 23 23
  1 neighbor lists, perpetual/occasional/extra = 1 0 0
  (1) pair lj/cut/kk, perpetual
      attributes: half, newton on, kokkos_device
      pair build: half/bin/newton/kk/device
      stencil: half/bin/3d
      bin: kk/device
WARNING: Communication cutoff 1.52 is shorter than a bond length based estimate of 1.855. This may lead to errors. (src/comm.cpp:694)
Per MPI rank memory allocation (min/avg/max) = 29.98 | 29.98 | 29.98 Mbytes
   Step          Temp          E_pair         E_mol          TotEng         Press     
         0   0.97029772     0.44484087     20.494523      22.394765      4.6721833    
       500   0.98580064     0.44668124     20.502071      22.427407      4.7324606    
      1000   0.99344213     0.4510745      20.513185      22.454376      4.7052313    
      1500   1.0021354      0.44791682     20.509013      22.460086      4.6757265    
      2000   0.99997196     0.45742938     20.513295      22.470635      4.782505     
      2500   0.99932042     0.4488988      20.512555      22.460388      4.7793357    
      3000   0.99706159     0.44804632     20.515825      22.459417      4.7978177    
      3500   0.99587199     0.44874026     20.520839      22.46334       4.6861265    
      4000   0.99792022     0.45543883     20.514751      22.467024      4.7494074    
      4500   1.003099       0.45241773     20.519567      22.476586      4.7649239    
      5000   1.0068531      0.4599388      20.51398       22.484151      4.8609792    
      5500   1.0023581      0.45898995     20.514105      22.476585      4.8477973    
      6000   0.99684233     0.44656799     20.52048       22.462265      4.6988701    
      6500   1.0115846      0.45312888     20.519124      22.489582      4.7894801    
      7000   1.0038613      0.45630584     20.521463      22.483513      4.8086448    
      7500   1.0031329      0.45566751     20.517052      22.477372      4.8314586    
      8000   1.0052761      0.45159099     20.518179      22.477637      4.7487834    
      8500   1.002271       0.45435335     20.514983      22.472695      4.7638966    
      9000   1.0023849      0.45768896     20.520239      22.481458      4.8528956    
      9500   1.006693       0.4507199      20.51608       22.476793      4.7482747    
     10000   0.99281983     0.46122592     20.526067      22.476476      4.8631664    
     10500   0.99854645     0.45375365     20.514364      22.46589       4.7895466    
     11000   0.99800166     0.45381514     20.519396      22.470167      4.9019497    
     11500   1.003164       0.45317588     20.511581      22.469456      4.759783     
     12000   1.0006074      0.4536648      20.51278       22.467309      4.838486     
     12500   0.99432836     0.45469422     20.512953      22.459093      4.7504322    
     13000   0.99852408     0.45273552     20.520826      22.4713        4.8406833    
     13500   1.0037024      0.45407124     20.520281      22.479859      4.70669      
     14000   1.0019802      0.45421973     20.517947      22.47509       4.7763875    
     14500   1.0079892      0.4465431      20.516417      22.474896      4.8288155    
     15000   0.99702841     0.45706286     20.5198        22.472358      4.7420173    
     15500   1.0022452      0.45575403     20.516005      22.47508       4.8023716    
     16000   1.0014913      0.45424849     20.51982       22.476259      4.8656693    
     16500   0.999988       0.45347584     20.520945      22.474356      4.7052844    
     17000   1.0141691      0.45046054     20.517561      22.489227      4.8084845    
     17500   1.0057245      0.44771061     20.512247      22.468497      4.7814737    
     18000   1.0020826      0.45380699     20.517785      22.474669      4.8088092    
     18500   1.007256       0.45136152     20.508752      22.47095       4.7728081    
     19000   1.0025082      0.44913653     20.517414      22.470266      4.7506744    
     19500   1.000641       0.45343909     20.507769      22.462123      4.7782179    
     20000   0.99632366     0.45454688     20.512131      22.461116      4.8183835    
     20500   0.99400809     0.45241941     20.516075      22.45946       4.8088984    
     21000   1.0027836      0.45798473     20.518288      22.480401      4.755374     
     21500   1.0025029      0.44921853     20.51468       22.467606      4.7696863    
     22000   1.0034162      0.45285491     20.513697      22.471629      4.7590491    
     22500   0.99884337     0.4462975      20.516885      22.461401      4.6518667    
     23000   0.99691919     0.45676107     20.517407      22.4695        4.834278     
     23500   1.0010742      0.45916676     20.510105      22.470836      4.9187248    
     24000   0.99839876     0.45084531     20.512291      22.460688      4.7240025    
     24500   1.0065373      0.45290948     20.519495      22.482163      4.7243901    
     25000   1.0030903      0.45803698     20.523037      22.485663      4.8256339    
     25500   0.9997271      0.45898819     20.517582      22.476114      4.9067908    
     26000   1.0119783      0.44934105     20.519918      22.487179      4.761303     
     26500   0.99542216     0.4612237      20.51344       22.46775       4.8299776    
     27000   1.0052629      0.45496692     20.519729      22.482543      4.8567133    
     27500   0.99152331     0.45039986     20.523592      22.461231      4.7314574    
     28000   0.99839196     0.45223725     20.514222      22.464001      4.7053933    
     28500   1.0001387      0.45653017     20.513306      22.469997      4.7569078    
     29000   0.99957137     0.45643203     20.510024      22.465767      4.7531736    
     29500   1.0021378      0.4585643      20.514683      22.476408      4.80237      
     30000   1.0000196      0.45216018     20.517252      22.469395      4.7287149    
     30500   0.99739843     0.44948816     20.504967      22.450506      4.7370137    
     31000   0.99752199     0.4518288      20.50993       22.457995      4.8066536    
     31500   0.9931343      0.45712055     20.516256      22.463032      4.7514297    
     32000   1.0051582      0.4504657      20.514483      22.472639      4.7732608    
     32500   1.0079693      0.45002734     20.516697      22.478631      4.7271545    
     33000   1.0049692      0.45788586     20.513965      22.479257      4.7762531    
     33500   1.0041525      0.45256123     20.522625      22.481368      4.8240695    
     34000   1.0030038      0.4497315      20.517711      22.471901      4.7090984    
     34500   1.0012778      0.44971447     20.512565      22.464149      4.6932647    
     35000   0.99805249     0.46234011     20.517935      22.477307      4.8537461    
     35500   0.99807106     0.45245592     20.518749      22.468265      4.8764686    
     36000   1.0077941      0.45347827     20.521952      22.487074      4.8358822    
     36500   1.0041652      0.46042196     20.517657      22.484279      4.7995898    
     37000   1.0069666      0.45743277     20.514592      22.482428      4.7078321    
     37500   1.0046566      0.45490027     20.51383       22.475668      4.6946737    
     38000   1.0039015      0.45682961     20.514635      22.47727       4.7902024    
     38500   1.0016204      0.45741799     20.519631      22.479433      4.8559185    
     39000   1.0062515      0.45130131     20.516513      22.477144      4.7075961    
     39500   1.003244       0.45265425     20.517225      22.474698      4.8000473    
     40000   1.0015826      0.44787479     20.511801      22.462003      4.7114004    
     40500   1.0022519      0.4478233      20.516434      22.467588      4.7399248    
     41000   1.0023176      0.45802936     20.516585      22.478044      4.8665124    
     41500   1.0099085      0.4511326      20.52036       22.486308      4.7453147    
     42000   1.0046263      0.45575099     20.518846      22.48149       4.7839403    
     42500   0.99167078     0.45634993     20.513855      22.457665      4.7888608    
     43000   1.0037926      0.45312475     20.519698      22.478464      4.8103799    
     43500   1.002245       0.45863682     20.517457      22.479415      4.7687786    
     44000   1.0031361      0.45096406     20.517911      22.473532      4.7279584    
     44500   0.99920675     0.45236103     20.515166      22.46629       4.7048001    
     45000   1.0085222      0.45062183     20.519495      22.482853      4.781163     
     45500   1.004834       0.45478045     20.516468      22.478452      4.7912219    
     46000   1.00588        0.45711691     20.522005      22.487895      4.8782479    
     46500   1.0004485      0.46146108     20.522947      22.485034      4.7915099    
     47000   1.0066827      0.45876213     20.512493      22.481232      4.7830871    
     47500   1.0161872      0.45168843     20.519545      22.495466      4.8580757    
     48000   1.0077647      0.45913277     20.515815      22.486547      4.7512726    
     48500   1.0028945      0.45606654     20.517605      22.477966      4.8385985    
     49000   1.0031746      0.45239088     20.510811      22.467917      4.8066988    
     49500   0.99959511     0.4507598      20.515921      22.466027      4.7554791    
     50000   1.0078079      0.45309135     20.514591      22.479347      4.7531889    
Loop time of 34.7369 on 8 procs for 50000 steps with 32000 atoms

Performance: 1492360.169 tau/day, 1439.391 timesteps/s, 46.060 Matom-step/s
98.7% CPU use with 1 MPI tasks x 8 OpenMP threads

MPI task timing breakdown:
Section |  min time  |  avg time  |  max time  |%varavg| %total
---------------------------------------------------------------
Pair    | 0.80234    | 0.80234    | 0.80234    |   0.0 |  2.31
Bond    | 2.8021     | 2.8021     | 2.8021     |   0.0 |  8.07
Neigh   | 3.7008     | 3.7008     | 3.7008     |   0.0 | 10.65
Comm    | 21.94      | 21.94      | 21.94      |   0.0 | 63.16
Output  | 0.0047023  | 0.0047023  | 0.0047023  |   0.0 |  0.01
Modify  | 2.8994     | 2.8994     | 2.8994     |   0.0 |  8.35
Other   |            | 2.588      |            |       |  7.45

Nlocal:          32000 ave       32000 max       32000 min
Histogram: 1 0 0 0 0 0 0 0 0 0
Nghost:           9499 ave        9499 max        9499 min
Histogram: 1 0 0 0 0 0 0 0 0 0
Neighs:         155853 ave      155853 max      155853 min
Histogram: 1 0 0 0 0 0 0 0 0 0

Total # of neighbors = 155853
Ave neighs/atom = 4.8704063
Ave special neighs/atom = 1.98
Neighbor list builds = 12551
Dangerous builds = 0
Total wall time: 0:01:20
