LAMMPS (30 Mar 2026)
KOKKOS mode with Kokkos version 5.1.99 is enabled
  using double precision
  using view layout = legacy
  will use up to 1 GPU(s) per node
  using 8 OpenMP thread(s) per MPI task
package kokkos
package kokkos gpu/aware on newton on neigh half
# FENE beadspring benchmark

units           lj
atom_style      bond
special_bonds   fene

read_data       input/data.chain
Reading data file ...
  orthogonal box = (-16.796 -16.796 -16.796) to (16.796 16.796 16.796)
  1 by 1 by 1 MPI processor grid
  reading atoms ...
  32000 atoms
  reading velocities ...
  32000 velocities
  scanning bonds ...
  1 = max bonds/atom
  orthogonal box = (-16.796 -16.796 -16.796) to (16.796 16.796 16.796)
  1 by 1 by 1 MPI processor grid
  reading bonds ...
  31680 bonds
Finding 1-2 1-3 1-4 neighbors ...
  special bond factors lj:    0        1        1       
  special bond factors coul:  0        1        1       
     2 = max # of 1-2 neighbors
     2 = max # of special neighbors
  special bonds CPU = 0.100 seconds
  read_data CPU = 2.475 seconds

neighbor        0.4 bin
neigh_modify    every 1 delay 1

bond_style      fene
bond_coeff      1 30.0 1.5 1.0 1.0

pair_style      lj/cut 1.12
pair_modify     shift yes
pair_coeff      1 1 1.0 1.0 1.12

fix             1 all nve
fix             2 all langevin 1.0 1.0 10.0 904297

fix             3 all imd 8887 version 3 unwrap off nowait off trate 8 time off box off coordinates on velocities off forces off
Using fix imd with asynchronous I/O.

thermo          500
timestep        0.012

run             50000

CITE-CITE-CITE-CITE-CITE-CITE-CITE-CITE-CITE-CITE-CITE-CITE-CITE

Your simulation uses code contributions which should be cited:

- KOKKOS package: https://doi.org/10.1145/3731599.3767498

@inproceedings{Johansson25,
 author = {A. Johansson and E. Weinberg and C. Trott and M. McCarthy and S. Moore},
 title = {{LAMMPS-KOKKOS}: {P}erformance Portable Molecular Dynamics Across Exascale Architectures},
 year = 2025,
 booktitle = {Proceedings of the SC '25 Workshops of the International Conference for High Performance Computing,
  Networking, Storage and Analysis},
 pages = {1217–1232},
}

CITE-CITE-CITE-CITE-CITE-CITE-CITE-CITE-CITE-CITE-CITE-CITE-CITE

Generated 0 of 0 mixed pair_coeff terms from geometric mixing rule
WARNING: Communication cutoff 1.52 is shorter than a bond length based estimate of 1.855. This may lead to errors. (src/comm.cpp:694)
Neighbor list info ...
  update: every = 1 steps, delay = 1 steps, check = yes
  max neighbors/atom: 2000, page size: 100000
  master list distance cutoff = 1.52
  ghost atom cutoff = 1.52
  binsize = 1.52, bins = 23 23 23
  1 neighbor lists, perpetual/occasional/extra = 1 0 0
  (1) pair lj/cut/kk, perpetual
      attributes: half, newton on, kokkos_device
      pair build: half/bin/newton/kk/device
      stencil: half/bin/3d
      bin: kk/device
WARNING: Communication cutoff 1.52 is shorter than a bond length based estimate of 1.855. This may lead to errors. (src/comm.cpp:694)
Per MPI rank memory allocation (min/avg/max) = 29.98 | 29.98 | 29.98 Mbytes
   Step          Temp          E_pair         E_mol          TotEng         Press     
         0   0.97029772     0.44484087     20.494523      22.394765      4.6721833    
       500   0.97927588     0.45083364     20.508636      22.428337      4.7085695    
      1000   1.0009624      0.44997502     20.514121      22.465493      4.7076847    
      1500   1.0015451      0.45255891     20.511309      22.466139      4.7890988    
      2000   0.99333515     0.44781297     20.519118      22.456887      4.8161143    
      2500   1.007572       0.45082369     20.515402      22.477537      4.8641325    
      3000   1.0055962      0.46059946     20.517204      22.486151      4.9163366    
      3500   0.99733344     0.46265684     20.519206      22.477816      4.8608419    
      4000   0.99766645     0.44828614     20.513021      22.45776       4.7494098    
      4500   0.99670686     0.44547005     20.515983      22.456466      4.7965299    
      5000   1.0012642      0.45117266     20.515967      22.468989      4.8276913    
      5500   0.99812073     0.45220126     20.517145      22.466481      4.882616     
      6000   1.0002194      0.44739777     20.519101      22.466781      4.7598114    
      6500   1.0005582      0.45765822     20.518077      22.476525      4.7533048    
      7000   1.0001666      0.44972834     20.512123      22.462054      4.7571304    
      7500   1.008011       0.45798422     20.515464      22.485417      4.8850726    
      8000   1.0074751      0.45208959     20.517407      22.480662      4.7855906    
      8500   1.0025517      0.45184121     20.511298      22.46692       4.7918445    
      9000   1.0003175      0.45898554     20.512916      22.472331      4.7873219    
      9500   0.99958043     0.44965967     20.509468      22.458452      4.819301     
     10000   0.99556315     0.4477315      20.514471      22.455501      4.6483912    
     10500   0.99593727     0.45731853     20.516775      22.467953      4.8174668    
     11000   1.0050544      0.45041713     20.515679      22.47363       4.8123365    
     11500   1.0036997      0.44986322     20.514658      22.470024      4.7221817    
     12000   1.0060746      0.45526034     20.522085      22.48641       4.8798217    
     12500   0.9982884      0.45791737     20.520419      22.475722      4.8576561    
     13000   0.99842339     0.45711538     20.511998      22.466701      4.7689291    
     13500   1.0031317      0.45439257     20.514301      22.473345      4.833668     
     14000   0.99557704     0.45516825     20.514919      22.463407      4.8305342    
     14500   1.0048604      0.45102203     20.512707      22.470973      4.8336255    
     15000   0.99943555     0.4521232      20.522788      22.474017      4.7740274    
     15500   1.000436       0.4613781      20.521691      22.483676      4.7906487    
     16000   1.0039741      0.45229259     20.522321      22.480527      4.7433963    
     16500   1.0018922      0.45144597     20.520442      22.474679      4.7462558    
     17000   1.0056088      0.45638245     20.515264      22.480013      4.8373705    
     17500   1.0038432      0.45446431     20.51357       22.473752      4.7683589    
     18000   1.004108       0.4534583      20.518594      22.478167      4.7867357    
     18500   0.99840645     0.45018069     20.51711       22.464853      4.6476001    
     19000   1.002554       0.44223789     20.512272      22.458294      4.6987254    
     19500   0.99809403     0.45485994     20.518124      22.470078      4.7591423    
     20000   1.0005466      0.45549662     20.519042      22.475312      4.7967247    
     20500   1.0097782      0.45081984     20.522564      22.488004      4.7927609    
     21000   1.0012024      0.45577243     20.519264      22.476793      4.7988089    
     21500   0.99862946     0.45450678     20.516759      22.469163      4.8354065    
     22000   1.0049249      0.45606678     20.519784      22.483191      4.859545     
     22500   0.99843146     0.45801864     20.520536      22.476155      4.8037164    
     23000   1.0056034      0.45420199     20.518393      22.480953      4.8485629    
     23500   1.0060291      0.45077826     20.510405      22.47018       4.7536842    
     24000   1.0045652      0.45002282     20.514022      22.470846      4.8193649    
     24500   1.0015578      0.45914754     20.512792      22.47423       4.7561665    
     25000   0.99988873     0.44953652     20.51996       22.469282      4.8065274    
     25500   1.0019156      0.4497276      20.519047      22.471601      4.7443013    
     26000   1.0009109      0.45962813     20.518591      22.479539      4.814769     
     26500   1.0050271      0.45004258     20.518302      22.475838      4.7983325    
     27000   1.0062473      0.45305556     20.514404      22.476783      4.7600954    
     27500   1.0060493      0.45233386     20.518643      22.480003      4.7773192    
     28000   0.99871824     0.4548308      20.518779      22.47164       4.8255576    
     28500   1.0040969      0.45367966     20.509179      22.468957      4.8189346    
     29000   1.0031933      0.45523074     20.502892      22.462866      4.8005616    
     29500   1.0050441      0.45229692     20.513521      22.473337      4.7542448    
     30000   0.99880511     0.45216534     20.52284       22.473166      4.8035062    
     30500   1.0071333      0.45404397     20.513123      22.47782       4.7205696    
     31000   1.0008323      0.45080577     20.519557      22.471564      4.6603409    
     31500   0.99714291     0.45729639     20.512657      22.465621      4.7647828    
     32000   1.0080911      0.45426367     20.518216      22.484569      4.7685856    
     32500   1.006985       0.45751376     20.522624      22.490568      4.7948955    
     33000   1.0019341      0.45718238     20.521761      22.481798      4.7807072    
     33500   0.99889935     0.45569914     20.517553      22.471554      4.8429751    
     34000   0.99977475     0.45888939     20.514005      22.472509      4.8514992    
     34500   1.0001314      0.45326529     20.521458      22.474874      4.8487371    
     35000   1.0113332      0.45460094     20.511566      22.483119      4.782155     
     35500   1.0090413      0.45836072     20.519052      22.490927      4.855558     
     36000   1.0042799      0.45856405     20.51527       22.480207      4.8883588    
     36500   1.0009244      0.44886687     20.519091      22.469297      4.742739     
     37000   0.99634515     0.4555938      20.515996      22.466061      4.7420061    
     37500   0.9975727      0.45369056     20.517507      22.46751       4.7169125    
     38000   1.0082693      0.45596055     20.516923      22.485241      4.8185287    
     38500   0.9980604      0.45407654     20.51852       22.46964       4.8490321    
     39000   0.99829805     0.44770283     20.513597      22.4587        4.7535499    
     39500   1.0060634      0.44903892     20.510403      22.46849       4.7321164    
     40000   0.99825617     0.4510943      20.518354      22.466785      4.8137547    
     40500   1.0089146      0.45866685     20.512303      22.484294      4.7737902    
     41000   1.0043379      0.45928175     20.516703      22.482445      4.8304844    
     41500   1.0003533      0.45491466     20.517692      22.47309       4.8055171    
     42000   1.0058038      0.45604604     20.525673      22.490378      4.8526166    
     42500   1.0062595      0.45019131     20.521621      22.481155      4.754193     
     43000   0.99952394     0.45606278     20.518824      22.474126      4.7955505    
     43500   1.0069972      0.45164587     20.514826      22.47692       4.7798436    
     44000   1.0078953      0.45430616     20.518194      22.484296      4.9472143    
     44500   1.0081734      0.45629202     20.515669      22.484174      4.9226922    
     45000   1.0028827      0.45237047     20.517751      22.474398      4.8366694    
     45500   0.99581795     0.45733984     20.523604      22.474624      4.7748992    
     46000   1.0085911      0.45309865     20.518458      22.484396      4.7778112    
     46500   1.0019655      0.4577247      20.517849      22.478474      4.7098067    
     47000   1.0017643      0.45398119     20.514402      22.470983      4.6891771    
     47500   0.999229       0.4571826      20.51795       22.473929      4.8254445    
     48000   0.99233506     0.45728808     20.512664      22.458408      4.7486506    
     48500   0.99637819     0.4538425      20.513269      22.461632      4.8418602    
     49000   1.0024952      0.45135469     20.519476      22.474526      4.7596478    
     49500   1.0058721      0.4522139      20.513936      22.474911      4.70802      
     50000   0.9989376      0.4568875      20.516806      22.472053      4.8456855    
Loop time of 42.0263 on 8 procs for 50000 steps with 32000 atoms

Performance: 1233513.971 tau/day, 1189.732 timesteps/s, 38.071 Matom-step/s
98.6% CPU use with 1 MPI tasks x 8 OpenMP threads

MPI task timing breakdown:
Section |  min time  |  avg time  |  max time  |%varavg| %total
---------------------------------------------------------------
Pair    | 0.81591    | 0.81591    | 0.81591    |   0.0 |  1.94
Bond    | 2.8184     | 2.8184     | 2.8184     |   0.0 |  6.71
Neigh   | 3.694      | 3.694      | 3.694      |   0.0 |  8.79
Comm    | 22.078     | 22.078     | 22.078     |   0.0 | 52.53
Output  | 0.0040749  | 0.0040749  | 0.0040749  |   0.0 |  0.01
Modify  | 10.007     | 10.007     | 10.007     |   0.0 | 23.81
Other   |            | 2.609      |            |       |  6.21

Nlocal:          32000 ave       32000 max       32000 min
Histogram: 1 0 0 0 0 0 0 0 0 0
Nghost:           9480 ave        9480 max        9480 min
Histogram: 1 0 0 0 0 0 0 0 0 0
Neighs:         155618 ave      155618 max      155618 min
Histogram: 1 0 0 0 0 0 0 0 0 0

Total # of neighbors = 155618
Ave neighs/atom = 4.8630625
Ave special neighs/atom = 1.98
Neighbor list builds = 12549
Dangerous builds = 0
Total wall time: 0:01:27
