LAMMPS (30 Mar 2026)
KOKKOS mode with Kokkos version 5.1.99 is enabled
  using double precision
  using view layout = legacy
  will use up to 1 GPU(s) per node
  using 8 OpenMP thread(s) per MPI task
package kokkos
package kokkos newton on neigh half
# FENE beadspring benchmark

units           lj
atom_style      bond
special_bonds   fene

read_data       input/data.chain
Reading data file ...
  orthogonal box = (-16.796 -16.796 -16.796) to (16.796 16.796 16.796)
  1 by 1 by 1 MPI processor grid
  reading atoms ...
  32000 atoms
  reading velocities ...
  32000 velocities
  scanning bonds ...
  1 = max bonds/atom
  orthogonal box = (-16.796 -16.796 -16.796) to (16.796 16.796 16.796)
  1 by 1 by 1 MPI processor grid
  reading bonds ...
  31680 bonds
Finding 1-2 1-3 1-4 neighbors ...
  special bond factors lj:    0        1        1       
  special bond factors coul:  0        1        1       
     2 = max # of 1-2 neighbors
     2 = max # of special neighbors
  special bonds CPU = 0.028 seconds
  read_data CPU = 1.340 seconds

neighbor        0.4 bin
neigh_modify    every 1 delay 1

bond_style      fene
bond_coeff      1 30.0 1.5 1.0 1.0

pair_style      lj/cut 1.12
pair_modify     shift yes
pair_coeff      1 1 1.0 1.0 1.12

fix             1 all nve
fix             2 all langevin 1.0 1.0 10.0 904297

thermo          500
timestep        0.012

dump            1 all custom 50 output/fileio/performance/prod/1-0-8/frequency-50/run-2/pos_file.dump id type x y z

run             50000

CITE-CITE-CITE-CITE-CITE-CITE-CITE-CITE-CITE-CITE-CITE-CITE-CITE

Your simulation uses code contributions which should be cited:

- KOKKOS package: https://doi.org/10.1145/3731599.3767498

@inproceedings{Johansson25,
 author = {A. Johansson and E. Weinberg and C. Trott and M. McCarthy and S. Moore},
 title = {{LAMMPS-KOKKOS}: {P}erformance Portable Molecular Dynamics Across Exascale Architectures},
 year = 2025,
 booktitle = {Proceedings of the SC '25 Workshops of the International Conference for High Performance Computing,
  Networking, Storage and Analysis},
 pages = {1217–1232},
}

CITE-CITE-CITE-CITE-CITE-CITE-CITE-CITE-CITE-CITE-CITE-CITE-CITE

Generated 0 of 0 mixed pair_coeff terms from geometric mixing rule
WARNING: Communication cutoff 1.52 is shorter than a bond length based estimate of 1.855. This may lead to errors. (src/comm.cpp:694)
Neighbor list info ...
  update: every = 1 steps, delay = 1 steps, check = yes
  max neighbors/atom: 2000, page size: 100000
  master list distance cutoff = 1.52
  ghost atom cutoff = 1.52
  binsize = 1.52, bins = 23 23 23
  1 neighbor lists, perpetual/occasional/extra = 1 0 0
  (1) pair lj/cut/kk, perpetual
      attributes: half, newton on, kokkos_device
      pair build: half/bin/newton/kk/device
      stencil: half/bin/3d
      bin: kk/device
WARNING: Communication cutoff 1.52 is shorter than a bond length based estimate of 1.855. This may lead to errors. (src/comm.cpp:694)
Per MPI rank memory allocation (min/avg/max) = 21.68 | 21.68 | 21.68 Mbytes
   Step          Temp          E_pair         E_mol          TotEng         Press     
         0   0.97029772     0.44484087     20.494523      22.394765      4.6721833    
       500   0.98108316     0.44849798     20.499691      22.419768      4.7552588    
      1000   0.99682551     0.45000225     20.510809      22.456003      4.736195     
      1500   0.99393546     0.44916146     20.509265      22.449283      4.7439443    
      2000   0.99776229     0.45473741     20.510967      22.462301      4.7611332    
      2500   1.0033547      0.45341299     20.506258      22.464656      4.8106834    
      3000   1.0060725      0.4534198      20.509484      22.471966      4.7623076    
      3500   1.0043038      0.44858709     20.516322      22.471318      4.831939     
      4000   0.99624249     0.45993629     20.524716      22.478969      4.743591     
      4500   0.99720048     0.45918894     20.515366      22.470309      4.8757291    
      5000   1.0079879      0.45312166     20.513083      22.47814       4.7926429    
      5500   1.0038471      0.4513441      20.518225      22.475293      4.7359406    
      6000   0.99964005     0.44774874     20.509042      22.456204      4.7179598    
      6500   0.99704095     0.45281867     20.515752      22.464085      4.7782463    
      7000   1.0076801      0.45229015     20.520162      22.483925      4.8159512    
      7500   0.99807763     0.45994432     20.512865      22.469879      4.8335786    
      8000   1.0025021      0.45406151     20.5163        22.474068      4.786904     
      8500   1.0075323      0.45097209     20.516153      22.478376      4.7677168    
      9000   1.0043863      0.45423184     20.516423      22.477187      4.768829     
      9500   0.99787934     0.45358322     20.52232       22.472676      4.8060309    
     10000   0.9938824      0.45413783     20.51607       22.460985      4.7207709    
     10500   0.99303555     0.45616568     20.514296      22.459968      4.7675935    
     11000   1.0024492      0.45788851     20.509105      22.47062       4.8287004    
     11500   1.0016757      0.4592085      20.51744       22.479115      4.7385962    
     12000   1.0041023      0.4501647      20.523346      22.479617      4.755454     
     12500   1.0000195      0.45483004     20.512736      22.467548      4.7312506    
     13000   0.99985054     0.45489449     20.517911      22.472534      4.8048035    
     13500   0.9959913      0.45037435     20.517496      22.46181       4.8431811    
     14000   0.99508627     0.4566799      20.516223      22.465485      4.7884013    
     14500   1.0009295      0.45984388     20.522997      22.484188      4.8424732    
     15000   1.0051551      0.46410701     20.518155      22.489947      4.7429876    
     15500   0.99679751     0.45750705     20.517         22.469657      4.7243222    
     16000   1.0034565      0.45542059     20.509644      22.470202      4.8807059    
     16500   1.0099194      0.45677871     20.511834      22.483444      4.8423354    
     17000   1.009367       0.45511059     20.51819       22.487304      4.8013132    
     17500   1.0070987      0.45558693     20.518335      22.484523      4.7808044    
     18000   1.0074808      0.45024065     20.518227      22.479641      4.7796158    
     18500   1.0031939      0.45751706     20.517171      22.479432      4.8396965    
     19000   1.0060381      0.46055103     20.508498      22.478059      4.7705931    
     19500   1.0071796      0.45460631     20.519746      22.485074      4.8673908    
     20000   1.0037849      0.46147865     20.522937      22.490046      4.897        
     20500   1.0034525      0.45367562     20.52012       22.478927      4.7868695    
     21000   1.0020043      0.46021197     20.50967       22.472842      4.801817     
     21500   1.0061149      0.45662961     20.517534      22.483289      4.8339905    
     22000   1.0021625      0.4564416      20.521971      22.481609      4.7899933    
     22500   0.9945449      0.46000823     20.515765      22.467544      4.8322325    
     23000   1.0016173      0.45261613     20.514839      22.469834      4.7904678    
     23500   0.99929301     0.45096708     20.513119      22.462979      4.723495     
     24000   1.0036834      0.45940824     20.514745      22.479631      4.8539961    
     24500   0.9967231      0.44980257     20.520011      22.464852      4.8501483    
     25000   0.99792244     0.4563228      20.512942      22.466102      4.7212354    
     25500   0.99779006     0.45295124     20.508935      22.458524      4.7653791    
     26000   1.001144       0.45077278     20.512675      22.465117      4.7652147    
     26500   1.0058341      0.45369605     20.510044      22.472445      4.8244787    
     27000   0.99826564     0.45181654     20.51379       22.462958      4.8101072    
     27500   0.99476154     0.45146348     20.517224      22.460784      4.7966956    
     28000   1.0040358      0.45113941     20.518354      22.4755        4.8157898    
     28500   0.9958629      0.45225011     20.518403      22.464401      4.7742101    
     29000   0.99444872     0.44549191     20.511581      22.448699      4.7017955    
     29500   0.99664961     0.45336345     20.512407      22.460698      4.8426268    
     30000   0.99749756     0.45068917     20.514243      22.461132      4.7739775    
     30500   1.0034515      0.44906929     20.514253      22.468453      4.7684161    
     31000   1.0006725      0.451253       20.5116        22.463815      4.6932703    
     31500   1.0005815      0.45443464     20.519181      22.474441      4.7343773    
     32000   0.9983301      0.46092588     20.513755      22.47213       4.7385069    
     32500   1.0022151      0.44783377     20.524893      22.476002      4.7712748    
     33000   1.0059755      0.45919531     20.516893      22.485004      4.8578853    
     33500   0.99271883     0.46014826     20.523905      22.473085      4.7689728    
     34000   1.0027256      0.45854419     20.514119      22.476705      4.7959139    
     34500   1.0111485      0.4507293      20.52086       22.488265      4.8245292    
     35000   0.99845869     0.45327668     20.524542      22.47546       4.8344825    
     35500   0.99868838     0.45744169     20.516628      22.472056      4.8262058    
     36000   0.99827664     0.45007665     20.512968      22.460412      4.8858089    
     36500   1.0038376      0.44478434     20.524308      22.474802      4.745058     
     37000   1.0034201      0.44903308     20.521687      22.475804      4.8615637    
     37500   0.99396111     0.46423861     20.522322      22.477456      4.904808     
     38000   1.0049823      0.45342988     20.517615      22.478471      4.8433623    
     38500   1.0012312      0.45153359     20.512474      22.465807      4.8099035    
     39000   1.0078737      0.44790533     20.514606      22.474275      4.7421659    
     39500   1.0067049      0.44565665     20.512298      22.467965      4.6719809    
     40000   1.002324       0.45352367     20.51641       22.473373      4.8357517    
     40500   1.001566       0.45894836     20.521353      22.482604      4.8892448    
     41000   0.99810126     0.45201076     20.513138      22.462254      4.8192397    
     41500   0.99870432     0.44870155     20.518017      22.464729      4.7735049    
     42000   1.005359       0.44734349     20.516299      22.471633      4.7801558    
     42500   0.99649773     0.46130315     20.515916      22.471919      4.8144259    
     43000   0.99568521     0.45302027     20.519808      22.466309      4.7668096    
     43500   1.0026562      0.45099481     20.520666      22.475598      4.8173322    
     44000   1.0003631      0.45818623     20.516831      22.475515      4.7904605    
     44500   1.0071173      0.45344072     20.519659      22.483729      4.857616     
     45000   0.99610582     0.45579488     20.519726      22.469632      4.7766464    
     45500   1.0008229      0.45107823     20.511365      22.463631      4.8273456    
     46000   0.99642778     0.44841816     20.522651      22.465664      4.7709373    
     46500   0.99769176     0.45315784     20.515835      22.465484      4.7955663    
     47000   0.99925731     0.453966       20.512856      22.465661      4.7775333    
     47500   1.0015316      0.45378843     20.511606      22.467645      4.7458151    
     48000   1.0026811      0.45187588     20.521153      22.477004      4.8374557    
     48500   0.99999482     0.46365949     20.50994       22.473545      4.9480959    
     49000   1.0037839      0.45750511     20.521752      22.484886      4.9221915    
     49500   1.000616       0.4525294      20.517083      22.47049       4.8978026    
     50000   1.0058737      0.45400265     20.513881      22.476647      4.7979521    
Loop time of 52.7878 on 8 procs for 50000 steps with 32000 atoms

Performance: 982045.331 tau/day, 947.189 timesteps/s, 30.310 Matom-step/s
99.1% CPU use with 1 MPI tasks x 8 OpenMP threads

MPI task timing breakdown:
Section |  min time  |  avg time  |  max time  |%varavg| %total
---------------------------------------------------------------
Pair    | 0.84448    | 0.84448    | 0.84448    |   0.0 |  1.60
Bond    | 2.8813     | 2.8813     | 2.8813     |   0.0 |  5.46
Neigh   | 3.6933     | 3.6933     | 3.6933     |   0.0 |  7.00
Comm    | 19.739     | 19.739     | 19.739     |   0.0 | 37.39
Output  | 21.535     | 21.535     | 21.535     |   0.0 | 40.80
Modify  | 1.0682     | 1.0682     | 1.0682     |   0.0 |  2.02
Other   |            | 3.027      |            |       |  5.73

Nlocal:          32000 ave       32000 max       32000 min
Histogram: 1 0 0 0 0 0 0 0 0 0
Nghost:           9545 ave        9545 max        9545 min
Histogram: 1 0 0 0 0 0 0 0 0 0
Neighs:         155604 ave      155604 max      155604 min
Histogram: 1 0 0 0 0 0 0 0 0 0

Total # of neighbors = 155604
Ave neighs/atom = 4.862625
Ave special neighs/atom = 1.98
Neighbor list builds = 12548
Dangerous builds = 0
Total wall time: 0:00:54
