LAMMPS (30 Mar 2026)
KOKKOS mode with Kokkos version 5.1.99 is enabled
  using double precision
  using view layout = legacy
  will use up to 1 GPU(s) per node
  using 8 OpenMP thread(s) per MPI task
package kokkos
package kokkos gpu/aware on newton on neigh half
# FENE beadspring benchmark

units           lj
atom_style      bond
special_bonds   fene

read_data       input/data.chain
Reading data file ...
  orthogonal box = (-16.796 -16.796 -16.796) to (16.796 16.796 16.796)
  1 by 1 by 1 MPI processor grid
  reading atoms ...
  32000 atoms
  reading velocities ...
  32000 velocities
  scanning bonds ...
  1 = max bonds/atom
  orthogonal box = (-16.796 -16.796 -16.796) to (16.796 16.796 16.796)
  1 by 1 by 1 MPI processor grid
  reading bonds ...
  31680 bonds
Finding 1-2 1-3 1-4 neighbors ...
  special bond factors lj:    0        1        1       
  special bond factors coul:  0        1        1       
     2 = max # of 1-2 neighbors
     2 = max # of special neighbors
  special bonds CPU = 0.105 seconds
  read_data CPU = 2.463 seconds

neighbor        0.4 bin
neigh_modify    every 1 delay 1

bond_style      fene
bond_coeff      1 30.0 1.5 1.0 1.0

pair_style      lj/cut 1.12
pair_modify     shift yes
pair_coeff      1 1 1.0 1.0 1.12

fix             1 all nve
fix             2 all langevin 1.0 1.0 10.0 904297

fix             3 all imd 8887 version 3 unwrap off nowait off trate 5000 time off box off coordinates on velocities off forces off
Using fix imd with asynchronous I/O.

thermo          500
timestep        0.012

run             50000

CITE-CITE-CITE-CITE-CITE-CITE-CITE-CITE-CITE-CITE-CITE-CITE-CITE

Your simulation uses code contributions which should be cited:

- KOKKOS package: https://doi.org/10.1145/3731599.3767498

@inproceedings{Johansson25,
 author = {A. Johansson and E. Weinberg and C. Trott and M. McCarthy and S. Moore},
 title = {{LAMMPS-KOKKOS}: {P}erformance Portable Molecular Dynamics Across Exascale Architectures},
 year = 2025,
 booktitle = {Proceedings of the SC '25 Workshops of the International Conference for High Performance Computing,
  Networking, Storage and Analysis},
 pages = {1217–1232},
}

CITE-CITE-CITE-CITE-CITE-CITE-CITE-CITE-CITE-CITE-CITE-CITE-CITE

Generated 0 of 0 mixed pair_coeff terms from geometric mixing rule
WARNING: Communication cutoff 1.52 is shorter than a bond length based estimate of 1.855. This may lead to errors. (src/comm.cpp:694)
Neighbor list info ...
  update: every = 1 steps, delay = 1 steps, check = yes
  max neighbors/atom: 2000, page size: 100000
  master list distance cutoff = 1.52
  ghost atom cutoff = 1.52
  binsize = 1.52, bins = 23 23 23
  1 neighbor lists, perpetual/occasional/extra = 1 0 0
  (1) pair lj/cut/kk, perpetual
      attributes: half, newton on, kokkos_device
      pair build: half/bin/newton/kk/device
      stencil: half/bin/3d
      bin: kk/device
WARNING: Communication cutoff 1.52 is shorter than a bond length based estimate of 1.855. This may lead to errors. (src/comm.cpp:694)
Per MPI rank memory allocation (min/avg/max) = 29.98 | 29.98 | 29.98 Mbytes
   Step          Temp          E_pair         E_mol          TotEng         Press     
         0   0.97029772     0.44484087     20.494523      22.394765      4.6721833    
       500   0.99106089     0.44797738     20.511763      22.446285      4.7430925    
      1000   0.99586013     0.45208764     20.512122      22.457953      4.7629852    
      1500   1.0059723      0.45955297     20.516407      22.484871      4.7579523    
      2000   1.0084384      0.45567944     20.512939      22.481229      4.8259209    
      2500   0.99864354     0.45498943     20.520734      22.473642      4.7742001    
      3000   1.0057788      0.45637241     20.518052      22.483045      4.8488733    
      3500   1.0037969      0.4483129      20.518772      22.472734      4.8104395    
      4000   0.9975921      0.45801597     20.519633      22.47399       4.8501652    
      4500   0.9977553      0.45444148     20.509721      22.460749      4.8619169    
      5000   0.99424846     0.45248447     20.524744      22.468555      4.8855555    
      5500   1.0018789      0.45767872     20.511135      22.471585      4.8097708    
      6000   0.99540718     0.45079519     20.516355      22.460214      4.83198      
      6500   1.0014384      0.45300364     20.513379      22.468493      4.724374     
      7000   0.98999734     0.45847715     20.522436      22.465863      4.870364     
      7500   1.0076637      0.4468241      20.521213      22.479486      4.7906531    
      8000   1.0040442      0.44711461     20.519546      22.47268       4.7251815    
      8500   1.0089859      0.45148927     20.50469       22.469611      4.7327882    
      9000   1.0045108      0.45443847     20.512764      22.473921      4.7513702    
      9500   1.0031596      0.45531202     20.511471      22.471476      4.7376734    
     10000   0.99182861     0.45677067     20.520987      22.465454      4.7793727    
     10500   0.99877063     0.45246293     20.521284      22.471856      4.792449     
     11000   1.0083004      0.45302179     20.514869      22.480294      4.823501     
     11500   1.000107       0.45753962     20.51853       22.476183      4.8663124    
     12000   0.99658786     0.45722613     20.513032      22.465094      4.7642871    
     12500   0.99837956     0.45375545     20.514683      22.465961      4.7825271    
     13000   1.0049202      0.45153781     20.512638      22.471509      4.7003224    
     13500   0.99489456     0.45478657     20.513079      22.46016       4.7687683    
     14000   1.0012295      0.45592892     20.510007      22.467734      4.8559201    
     14500   1.0005408      0.45656646     20.518046      22.475377      4.8324961    
     15000   1.0077882      0.45434509     20.520989      22.486969      4.8379766    
     15500   1.0013467      0.45325081     20.512502      22.467726      4.7939563    
     16000   1.0021187      0.4529903      20.515251      22.471373      4.8238619    
     16500   1.008764       0.45092386     20.513625      22.477647      4.7963536    
     17000   1.0043766      0.45088994     20.51758       22.474988      4.8133655    
     17500   0.99842285     0.46024879     20.521814      22.47965       4.7956444    
     18000   0.99774317     0.45008243     20.512394      22.459045      4.7260344    
     18500   0.99377654     0.45345412     20.514348      22.458421      4.8303019    
     19000   1.0006742      0.44275308     20.514909      22.458626      4.7654899    
     19500   0.99296778     0.44379174     20.514085      22.447282      4.7697545    
     20000   1.0020883      0.45154421     20.514222      22.468852      4.8136583    
     20500   0.99705764     0.45839396     20.515151      22.469085      4.7906465    
     21000   1.0038678      0.44939162     20.51737       22.472517      4.7975801    
     21500   0.99604255     0.45368489     20.509854      22.457556      4.8415433    
     22000   1.0023968      0.45641244     20.512379      22.47234       4.7843838    
     22500   1.0032851      0.45770824     20.516039      22.478628      4.7656259    
     23000   1.0059023      0.46096483     20.516441      22.486212      4.8388105    
     23500   1.0053108      0.45116135     20.520016      22.479096      4.7577489    
     24000   1.005327       0.45732919     20.512979      22.478252      4.78758      
     24500   1.003339       0.45807157     20.51776       22.480793      4.8242254    
     25000   1.0066532      0.45295334     20.514262      22.477148      4.8366144    
     25500   1.0012844      0.45177829     20.515387      22.469045      4.8264758    
     26000   0.99874574     0.44971249     20.516579      22.464363      4.8331704    
     26500   0.99992141     0.45087405     20.520046      22.470755      4.7842643    
     27000   1.0002114      0.45355561     20.513072      22.466898      4.8568384    
     27500   1.0021528      0.44427588     20.51452       22.461978      4.7782494    
     28000   0.99380089     0.45078613     20.515349      22.45679       4.7423852    
     28500   1.0003788      0.45558738     20.512125      22.468234      4.7837982    
     29000   0.99695566     0.45430529     20.513679      22.463371      4.757355     
     29500   1.0022842      0.44897239     20.508864      22.461216      4.7907863    
     30000   0.99905704     0.45781675     20.514906      22.471262      4.7113976    
     30500   1.0003705      0.44783372     20.517488      22.46583       4.8050396    
     31000   1.0053489      0.45086059     20.512744      22.47158       4.7472509    
     31500   0.99998117     0.45541211     20.520944      22.476281      4.7845739    
     32000   0.99995193     0.45662363     20.514951      22.471455      4.7959573    
     32500   1.007961       0.45050872     20.511933      22.474336      4.7754317    
     33000   1.0058185      0.45680988     20.512814      22.478304      4.8433247    
     33500   1.0017302      0.45764933     20.50854       22.468738      4.8718139    
     34000   1.0023425      0.45406165     20.519127      22.476655      4.8692191    
     34500   1.0036267      0.453853       20.512786      22.472032      4.7958132    
     35000   1.0035165      0.45392252     20.517397      22.476547      4.7951582    
     35500   1.0015354      0.45480258     20.517862      22.474921      4.743381     
     36000   1.0024218      0.45622607     20.525368      22.48518       4.7325185    
     36500   1.001891       0.46245681     20.510104      22.47535       4.9123858    
     37000   1.0081316      0.45673481     20.515983      22.484868      4.8308974    
     37500   1.0002113      0.45311509     20.517914      22.471299      4.8142144    
     38000   1.0002576      0.4489922      20.513535      22.462867      4.7652011    
     38500   0.99638034     0.45892603     20.507741      22.461191      4.6985229    
     39000   0.99859101     0.44468191     20.509801      22.452323      4.7862339    
     39500   0.99882853     0.45400965     20.51104       22.463246      4.7148988    
     40000   1.0008676      0.45018458     20.515485      22.466924      4.747187     
     40500   1.0018266      0.45123748     20.519868      22.473799      4.8392346    
     41000   1.0034516      0.45943576     20.519066      22.483632      4.8497856    
     41500   1.00068        0.45900972     20.516309      22.476292      4.7603063    
     42000   1.0043494      0.45989142     20.516974      22.483342      4.7404684    
     42500   1.0044924      0.45167974     20.516461      22.474832      4.816228     
     43000   1.0007961      0.45735565     20.514081      22.472584      4.7369434    
     43500   0.9996318      0.45496053     20.520522      22.474883      4.7822967    
     44000   1.0032978      0.45787581     20.515414      22.47819       4.79911      
     44500   1.007559       0.45888148     20.516516      22.486689      4.690715     
     45000   1.0052609      0.45573389     20.51263       22.476208      4.7920865    
     45500   0.99880809     0.4527526      20.519675      22.470593      4.7679096    
     46000   1.002474       0.45435694     20.515968      22.473989      4.8312138    
     46500   1.0001979      0.45663157     20.515308      22.472189      4.7104955    
     47000   1.0027783      0.45283523     20.509239      22.466195      4.7691499    
     47500   1.0039908      0.44633618     20.521406      22.473682      4.828971     
     48000   1.006109       0.4461482      20.516971      22.472235      4.7036374    
     48500   1.0034842      0.45320481     20.512505      22.470889      4.7892602    
     49000   1.000516       0.4541078      20.515362      22.470197      4.7873347    
     49500   1.0039064      0.45302503     20.518149      22.476986      4.7543736    
     50000   0.99997084     0.45589523     20.519378      22.475182      4.8988517    
Loop time of 33.4919 on 8 procs for 50000 steps with 32000 atoms

Performance: 1547839.125 tau/day, 1492.900 timesteps/s, 47.773 Matom-step/s
98.8% CPU use with 1 MPI tasks x 8 OpenMP threads

MPI task timing breakdown:
Section |  min time  |  avg time  |  max time  |%varavg| %total
---------------------------------------------------------------
Pair    | 0.79726    | 0.79726    | 0.79726    |   0.0 |  2.38
Bond    | 2.797      | 2.797      | 2.797      |   0.0 |  8.35
Neigh   | 3.6308     | 3.6308     | 3.6308     |   0.0 | 10.84
Comm    | 22.013     | 22.013     | 22.013     |   0.0 | 65.73
Output  | 0.0037839  | 0.0037839  | 0.0037839  |   0.0 |  0.01
Modify  | 1.6792     | 1.6792     | 1.6792     |   0.0 |  5.01
Other   |            | 2.571      |            |       |  7.68

Nlocal:          32000 ave       32000 max       32000 min
Histogram: 1 0 0 0 0 0 0 0 0 0
Nghost:           9427 ave        9427 max        9427 min
Histogram: 1 0 0 0 0 0 0 0 0 0
Neighs:         155697 ave      155697 max      155697 min
Histogram: 1 0 0 0 0 0 0 0 0 0

Total # of neighbors = 155697
Ave neighs/atom = 4.8655313
Ave special neighs/atom = 1.98
Neighbor list builds = 12549
Dangerous builds = 0
Total wall time: 0:01:18
