LAMMPS (30 Mar 2026)
KOKKOS mode with Kokkos version 5.1.99 is enabled
  using double precision
  using view layout = legacy
  will use up to 1 GPU(s) per node
  using 8 OpenMP thread(s) per MPI task
package kokkos
package kokkos gpu/aware on newton on neigh half
# FENE beadspring benchmark

units           lj
atom_style      bond
special_bonds   fene

read_data       input/data.chain
Reading data file ...
  orthogonal box = (-16.796 -16.796 -16.796) to (16.796 16.796 16.796)
  1 by 1 by 1 MPI processor grid
  reading atoms ...
  32000 atoms
  reading velocities ...
  32000 velocities
  scanning bonds ...
  1 = max bonds/atom
  orthogonal box = (-16.796 -16.796 -16.796) to (16.796 16.796 16.796)
  1 by 1 by 1 MPI processor grid
  reading bonds ...
  31680 bonds
Finding 1-2 1-3 1-4 neighbors ...
  special bond factors lj:    0        1        1       
  special bond factors coul:  0        1        1       
     2 = max # of 1-2 neighbors
     2 = max # of special neighbors
  special bonds CPU = 0.098 seconds
  read_data CPU = 2.473 seconds

neighbor        0.4 bin
neigh_modify    every 1 delay 1

bond_style      fene
bond_coeff      1 30.0 1.5 1.0 1.0

pair_style      lj/cut 1.12
pair_modify     shift yes
pair_coeff      1 1 1.0 1.0 1.12

fix             1 all nve
fix             2 all langevin 1.0 1.0 10.0 904297

fix             3 all imd 8887 version 3 unwrap off nowait off trate 500 time off box off coordinates on velocities off forces off
Using fix imd with asynchronous I/O.

thermo          500
timestep        0.012

run             50000

CITE-CITE-CITE-CITE-CITE-CITE-CITE-CITE-CITE-CITE-CITE-CITE-CITE

Your simulation uses code contributions which should be cited:

- KOKKOS package: https://doi.org/10.1145/3731599.3767498

@inproceedings{Johansson25,
 author = {A. Johansson and E. Weinberg and C. Trott and M. McCarthy and S. Moore},
 title = {{LAMMPS-KOKKOS}: {P}erformance Portable Molecular Dynamics Across Exascale Architectures},
 year = 2025,
 booktitle = {Proceedings of the SC '25 Workshops of the International Conference for High Performance Computing,
  Networking, Storage and Analysis},
 pages = {1217–1232},
}

CITE-CITE-CITE-CITE-CITE-CITE-CITE-CITE-CITE-CITE-CITE-CITE-CITE

Generated 0 of 0 mixed pair_coeff terms from geometric mixing rule
WARNING: Communication cutoff 1.52 is shorter than a bond length based estimate of 1.855. This may lead to errors. (src/comm.cpp:694)
Neighbor list info ...
  update: every = 1 steps, delay = 1 steps, check = yes
  max neighbors/atom: 2000, page size: 100000
  master list distance cutoff = 1.52
  ghost atom cutoff = 1.52
  binsize = 1.52, bins = 23 23 23
  1 neighbor lists, perpetual/occasional/extra = 1 0 0
  (1) pair lj/cut/kk, perpetual
      attributes: half, newton on, kokkos_device
      pair build: half/bin/newton/kk/device
      stencil: half/bin/3d
      bin: kk/device
WARNING: Communication cutoff 1.52 is shorter than a bond length based estimate of 1.855. This may lead to errors. (src/comm.cpp:694)
Per MPI rank memory allocation (min/avg/max) = 29.98 | 29.98 | 29.98 Mbytes
   Step          Temp          E_pair         E_mol          TotEng         Press     
         0   0.97029772     0.44484087     20.494523      22.394765      4.6721833    
       500   0.98782123     0.44122053     20.509347      22.432253      4.7238281    
      1000   0.99417698     0.45698462     20.504618      22.452822      4.7068675    
      1500   0.99462593     0.45047558     20.512106      22.454474      4.8125269    
      2000   1.0071265      0.45366969     20.514145      22.478457      4.9288132    
      2500   1.0047059      0.45269094     20.518679      22.478382      4.7242844    
      3000   1.0022393      0.45534894     20.524426      22.483087      4.8646872    
      3500   1.003849       0.45058634     20.510844      22.467157      4.809924     
      4000   0.99728099     0.45541148     20.514278      22.465564      4.7874243    
      4500   0.99440488     0.45288044     20.514185      22.458626      4.7384352    
      5000   1.0005229      0.46085791     20.513285      22.47488       4.8463499    
      5500   1.0112263      0.45480541     20.51152       22.483118      4.807682     
      6000   1.0024072      0.45760381     20.516909      22.478076      4.7877427    
      6500   0.99203688     0.45187089     20.517366      22.457246      4.7554376    
      7000   0.99827804     0.46067463     20.512164      22.470209      4.7702065    
      7500   0.9981026      0.4549384      20.51286       22.464905      4.7789448    
      8000   1.0036842      0.45117045     20.516045      22.472694      4.7561373    
      8500   1.0147783      0.44809294     20.51866       22.488873      4.7562197    
      9000   1.005911       0.45753666     20.514781      22.481137      4.7998508    
      9500   1.0007088      0.45976791     20.512968      22.473752      4.8170112    
     10000   0.99944533     0.45422685     20.518428      22.471776      4.8444168    
     10500   1.0057044      0.45274167     20.508483      22.469734      4.7894052    
     11000   0.99325599     0.45485222     20.514463      22.459153      4.6784179    
     11500   1.0004062      0.45810202     20.507101      22.465766      4.7688813    
     12000   0.99610676     0.4520424      20.512771      22.458927      4.7587018    
     12500   0.99829805     0.45360743     20.518039      22.469047      4.8076426    
     13000   1.0002218      0.45193637     20.517751      22.469974      4.7404953    
     13500   1.0018843      0.45600385     20.51597       22.474754      4.7304465    
     14000   0.99955276     0.45629998     20.515933      22.471515      4.7762707    
     14500   1.0016838      0.45551796     20.50461       22.462607      4.7188518    
     15000   0.99624306     0.45878978     20.510283      22.463391      4.7266198    
     15500   0.99800489     0.45553824     20.517733      22.470231      4.7302411    
     16000   1.0018849      0.44751251     20.50928       22.459573      4.7904042    
     16500   0.99363718     0.45177531     20.512267      22.454451      4.8059284    
     17000   1.0028069      0.4474356      20.514642      22.466241      4.8316601    
     17500   0.99676197     0.4535357      20.516085      22.464717      4.8529381    
     18000   0.99988504     0.4490877      20.51673       22.465599      4.7848556    
     18500   1.0038747      0.45297261     20.514749      22.473487      4.772788     
     19000   1.0003517      0.4515072      20.522231      22.474219      4.7982902    
     19500   1.0033843      0.44827144     20.516545      22.469846      4.7675711    
     20000   0.99794468     0.45281945     20.523795      22.473484      4.8010772    
     20500   1.0051556      0.44684247     20.520606      22.475135      4.7665856    
     21000   1.0046504      0.45094753     20.513989      22.471865      4.8237092    
     21500   1.0031042      0.46292123     20.519413      22.486944      4.8062029    
     22000   1.008732       0.45710132     20.515815      22.485967      4.7337637    
     22500   1.0058489      0.45949523     20.51583       22.484052      4.8052851    
     23000   1.0034364      0.45240957     20.522186      22.479703      4.7820081    
     23500   0.99895261     0.45414229     20.515487      22.468012      4.7848999    
     24000   1.0096512      0.45208024     20.520595      22.487105      4.8533534    
     24500   1.0025821      0.45714334     20.510674      22.471643      4.7086837    
     25000   0.99758797     0.45376775     20.516007      22.46611       4.7796289    
     25500   0.99753742     0.44936366     20.518036      22.463659      4.7774492    
     26000   0.99999296     0.45019915     20.517044      22.467185      4.7529878    
     26500   0.99814045     0.45847495     20.522549      22.478188      4.7804927    
     27000   0.99957673     0.46170371     20.516191      22.477213      4.8107091    
     27500   1.0068764      0.45568232     20.516825      22.482775      4.8514413    
     28000   1.0075137      0.45832412     20.511827      22.481374      4.8417991    
     28500   0.99859128     0.45894186     20.506453      22.463235      4.7698184    
     29000   0.99580782     0.45066544     20.514432      22.458762      4.8183379    
     29500   0.9951328      0.45635763     20.520492      22.469502      4.8999836    
     30000   1.0025891      0.45050286     20.516718      22.471058      4.7858402    
     30500   1.0012051      0.45199845     20.523013      22.476772      4.8087402    
     31000   0.99504658     0.45236556     20.514847      22.459736      4.8039997    
     31500   0.99591461     0.45539955     20.510252      22.459477      4.8555754    
     32000   1.0054481      0.4533796      20.520452      22.481957      4.8824594    
     32500   0.99761414     0.4552035      20.515525      22.467103      4.8473845    
     33000   1.0026188      0.45439411     20.512581      22.470857      4.8450493    
     33500   0.99631609     0.45842174     20.511754      22.464603      4.8487298    
     34000   0.99406442     0.45008768     20.511607      22.452744      4.7337364    
     34500   0.99418077     0.45544583     20.513052      22.459722      4.8592164    
     35000   1.0019314      0.44653785     20.51721       22.466598      4.7761188    
     35500   0.99738475     0.45164252     20.516622      22.464294      4.7176518    
     36000   0.99349812     0.45499173     20.518591      22.463783      4.8022549    
     36500   1.0009699      0.45725169     20.5075        22.466159      4.7718369    
     37000   0.99729295     0.45375202     20.512694      22.462338      4.745377     
     37500   0.99545221     0.44997487     20.516804      22.459911      4.750319     
     38000   0.9955508      0.45129544     20.517234      22.461809      4.8650479    
     38500   0.99643134     0.451942       20.512324      22.458866      4.7520408    
     39000   1.0032117      0.45767728     20.508809      22.471257      4.9114337    
     39500   1.0046475      0.44905259     20.516302      22.472278      4.8099801    
     40000   1.0018575      0.45529501     20.517256      22.47529       4.801588     
     40500   0.99936753     0.4541214      20.511237      22.464363      4.7729595    
     41000   0.99966387     0.46021962     20.507408      22.467076      4.7727555    
     41500   0.99260837     0.45007144     20.523879      22.462816      4.7879482    
     42000   1.0008249      0.45503432     20.516635      22.47286       4.8257015    
     42500   1.0084226      0.45766842     20.512745      22.483         4.7839463    
     43000   0.99850274     0.45796741     20.518749      22.474423      4.8368701    
     43500   1.0039706      0.4533012      20.512971      22.472181      4.801464     
     44000   1.004558       0.45893704     20.52047       22.486197      4.7933064    
     44500   1.0072543      0.45464453     20.514298      22.479777      4.7867545    
     45000   0.99713873     0.45475239     20.512883      22.463297      4.821309     
     45500   1.0034106      0.45653621     20.512415      22.474021      4.8667843    
     46000   1.0014079      0.45295292     20.520566      22.475584      4.7681584    
     46500   0.9964734      0.45836695     20.519804      22.472835      4.8120795    
     47000   0.99697819     0.45372605     20.516865      22.466012      4.8286779    
     47500   1.0061085      0.45251819     20.509023      22.470657      4.7855548    
     48000   1.0033971      0.45518253     20.520012      22.480243      4.8095921    
     48500   1.007507       0.45070688     20.514145      22.476065      4.839853     
     49000   1.0014439      0.45517681     20.510984      22.46828       4.7985494    
     49500   0.99580389     0.45209301     20.519718      22.46547       4.8407128    
     50000   1.0004114      0.45820517     20.515655      22.47443       4.7888169    
Loop time of 33.3902 on 8 procs for 50000 steps with 32000 atoms

Performance: 1552550.450 tau/day, 1497.444 timesteps/s, 47.918 Matom-step/s
98.7% CPU use with 1 MPI tasks x 8 OpenMP threads

MPI task timing breakdown:
Section |  min time  |  avg time  |  max time  |%varavg| %total
---------------------------------------------------------------
Pair    | 0.79747    | 0.79747    | 0.79747    |   0.0 |  2.39
Bond    | 2.7989     | 2.7989     | 2.7989     |   0.0 |  8.38
Neigh   | 3.6865     | 3.6865     | 3.6865     |   0.0 | 11.04
Comm    | 21.781     | 21.781     | 21.781     |   0.0 | 65.23
Output  | 0.0043103  | 0.0043103  | 0.0043103  |   0.0 |  0.01
Modify  | 1.7598     | 1.7598     | 1.7598     |   0.0 |  5.27
Other   |            | 2.563      |            |       |  7.67

Nlocal:          32000 ave       32000 max       32000 min
Histogram: 1 0 0 0 0 0 0 0 0 0
Nghost:           9455 ave        9455 max        9455 min
Histogram: 1 0 0 0 0 0 0 0 0 0
Neighs:         155507 ave      155507 max      155507 min
Histogram: 1 0 0 0 0 0 0 0 0 0

Total # of neighbors = 155507
Ave neighs/atom = 4.8595938
Ave special neighs/atom = 1.98
Neighbor list builds = 12551
Dangerous builds = 0
Total wall time: 0:01:18
