LAMMPS (30 Mar 2026)
KOKKOS mode with Kokkos version 5.1.99 is enabled
  using double precision
  using view layout = legacy
  will use up to 1 GPU(s) per node
  using 8 OpenMP thread(s) per MPI task
package kokkos
package kokkos newton on neigh half
# FENE beadspring benchmark

units           lj
atom_style      bond
special_bonds   fene

read_data       input/data.chain
Reading data file ...
  orthogonal box = (-16.796 -16.796 -16.796) to (16.796 16.796 16.796)
  1 by 1 by 1 MPI processor grid
  reading atoms ...
  32000 atoms
  reading velocities ...
  32000 velocities
  scanning bonds ...
  1 = max bonds/atom
  orthogonal box = (-16.796 -16.796 -16.796) to (16.796 16.796 16.796)
  1 by 1 by 1 MPI processor grid
  reading bonds ...
  31680 bonds
Finding 1-2 1-3 1-4 neighbors ...
  special bond factors lj:    0        1        1       
  special bond factors coul:  0        1        1       
     2 = max # of 1-2 neighbors
     2 = max # of special neighbors
  special bonds CPU = 0.034 seconds
  read_data CPU = 1.476 seconds

neighbor        0.4 bin
neigh_modify    every 1 delay 1

bond_style      fene
bond_coeff      1 30.0 1.5 1.0 1.0

pair_style      lj/cut 1.12
pair_modify     shift yes
pair_coeff      1 1 1.0 1.0 1.12

fix             1 all nve
fix             2 all langevin 1.0 1.0 10.0 904297

thermo          500
timestep        0.012

dump            1 all custom 8 output/fileio/performance/prod/1-0-8/frequency-8/run-4/pos_file.dump id type x y z

run             50000

CITE-CITE-CITE-CITE-CITE-CITE-CITE-CITE-CITE-CITE-CITE-CITE-CITE

Your simulation uses code contributions which should be cited:

- KOKKOS package: https://doi.org/10.1145/3731599.3767498

@inproceedings{Johansson25,
 author = {A. Johansson and E. Weinberg and C. Trott and M. McCarthy and S. Moore},
 title = {{LAMMPS-KOKKOS}: {P}erformance Portable Molecular Dynamics Across Exascale Architectures},
 year = 2025,
 booktitle = {Proceedings of the SC '25 Workshops of the International Conference for High Performance Computing,
  Networking, Storage and Analysis},
 pages = {1217–1232},
}

CITE-CITE-CITE-CITE-CITE-CITE-CITE-CITE-CITE-CITE-CITE-CITE-CITE

Generated 0 of 0 mixed pair_coeff terms from geometric mixing rule
WARNING: Communication cutoff 1.52 is shorter than a bond length based estimate of 1.855. This may lead to errors. (src/comm.cpp:694)
Neighbor list info ...
  update: every = 1 steps, delay = 1 steps, check = yes
  max neighbors/atom: 2000, page size: 100000
  master list distance cutoff = 1.52
  ghost atom cutoff = 1.52
  binsize = 1.52, bins = 23 23 23
  1 neighbor lists, perpetual/occasional/extra = 1 0 0
  (1) pair lj/cut/kk, perpetual
      attributes: half, newton on, kokkos_device
      pair build: half/bin/newton/kk/device
      stencil: half/bin/3d
      bin: kk/device
WARNING: Communication cutoff 1.52 is shorter than a bond length based estimate of 1.855. This may lead to errors. (src/comm.cpp:694)
Per MPI rank memory allocation (min/avg/max) = 21.68 | 21.68 | 21.68 Mbytes
   Step          Temp          E_pair         E_mol          TotEng         Press     
         0   0.97029772     0.44484087     20.494523      22.394765      4.6721833    
       500   0.98235459     0.44078397     20.508857      22.423126      4.7107126    
      1000   0.98524697     0.44885278     20.519332      22.446009      4.8021487    
      1500   0.99477334     0.44803183     20.510948      22.451093      4.8183059    
      2000   0.99819165     0.44583006     20.51146       22.454531      4.7085462    
      2500   0.99997624     0.45220505     20.515727      22.467849      4.6888689    
      3000   0.99699465     0.45241321     20.521373      22.469232      4.8483416    
      3500   1.0007572      0.44685176     20.51824       22.46618       4.798607     
      4000   1.0015575      0.45637306     20.512782      22.471445      4.7414911    
      4500   1.0036801      0.4512908      20.517565      22.474329      4.6807788    
      5000   1.0094362      0.45588055     20.511756      22.481743      4.7754628    
      5500   1.0065903      0.45545563     20.515179      22.480473      4.7969739    
      6000   1.0010895      0.45627891     20.506992      22.464859      4.8056906    
      6500   0.99954726     0.4521727      20.512247      22.463693      4.7432455    
      7000   0.99417289     0.45464622     20.512351      22.45821       4.7882989    
      7500   0.99569593     0.44856338     20.514062      22.456123      4.7918524    
      8000   0.99701787     0.45656027     20.518459      22.470499      4.7877191    
      8500   1.0021023      0.45588916     20.528992      22.487987      4.8145988    
      9000   1.0123061      0.45930793     20.509222      22.486942      4.7753013    
      9500   1.0039768      0.45776105     20.522068      22.485747      4.7667429    
     10000   1.005157       0.45625102     20.517999      22.481938      4.782154     
     10500   1.0008843      0.45822274     20.521155      22.480657      4.7302656    
     11000   1.0068167      0.46212369     20.518389      22.49069       4.8073975    
     11500   1.0048454      0.45058557     20.516885      22.474692      4.7641496    
     12000   1.0005279      0.44973804     20.519873      22.470355      4.783715     
     12500   0.99790865     0.45803336     20.51959       22.47444       4.8399729    
     13000   1.0050592      0.45074142     20.517784      22.476068      4.7744678    
     13500   1.0017361      0.44977447     20.514005      22.466337      4.8675077    
     14000   1.0036844      0.45840988     20.515123      22.479012      4.8562727    
     14500   1.0116372      0.45444863     20.515527      22.487384      4.852649     
     15000   1.0066268      0.45472193     20.517459      22.482074      4.7212204    
     15500   1.0048487      0.45768844     20.517591      22.482505      4.8565508    
     16000   1.0045963      0.45649932     20.518992      22.482338      4.8705969    
     16500   0.99817716     0.45429206     20.51933       22.470841      4.7609506    
     17000   0.9964453      0.45805725     20.515012      22.467691      4.854595     
     17500   0.99030973     0.45401977     20.511619      22.451057      4.6935361    
     18000   1.0074877      0.45095773     20.513744      22.475886      4.780457     
     18500   1.0058123      0.4528308      20.518087      22.479589      4.8463837    
     19000   1.0076775      0.45799653     20.516634      22.486099      4.8198161    
     19500   1.0045662      0.46009405     20.517512      22.484408      4.7250838    
     20000   1.0019205      0.45277833     20.516253      22.471865      4.7886508    
     20500   1.0095918      0.45931563     20.514661      22.488317      4.8578948    
     21000   1.0095212      0.45460883     20.511564      22.480408      4.6935225    
     21500   1.0083321      0.46217258     20.516261      22.490884      4.7851223    
     22000   1.0070374      0.45274007     20.52277       22.486019      4.7189007    
     22500   1.0011955      0.45466413     20.517774      22.474184      4.7704692    
     23000   1.0032713      0.4506861      20.516209      22.471755      4.6990533    
     23500   1.0022529      0.45347814     20.513565      22.470375      4.7771623    
     24000   0.99904487     0.45637468     20.51415       22.469045      4.7823811    
     24500   1.00217        0.45786754     20.514831      22.475907      4.8500001    
     25000   1.0030108      0.45424385     20.512894      22.471607      4.734063     
     25500   0.9941616      0.45298983     20.513814      22.457999      4.7580388    
     26000   0.99081105     0.45651905     20.515526      22.458215      4.8499298    
     26500   0.9887441      0.45224087     20.516055      22.451366      4.825103     
     27000   0.99681636     0.45467344     20.515698      22.46555       4.8630243    
     27500   0.99795247     0.45508452     20.522894      22.47486       4.8068873    
     28000   1.0074398      0.45653969     20.516248      22.4839        4.8086675    
     28500   1.0058049      0.45722281     20.522105      22.487988      4.8721096    
     29000   1.0036688      0.45283336     20.511879      22.470169      4.727259     
     29500   1.0112405      0.45561573     20.515752      22.488181      4.8158974    
     30000   1.0093963      0.4581096      20.511234      22.483391      4.7438599    
     30500   1.0023223      0.45850467     20.51821       22.480151      4.8825081    
     31000   1.0005309      0.45382242     20.520162      22.474734      4.8351392    
     31500   1.0063148      0.45228037     20.513836      22.475542      4.7969873    
     32000   1.0009323      0.45618963     20.518758      22.476299      4.8673031    
     32500   1.0034586      0.45761539     20.518855      22.481611      4.7347503    
     33000   1.0025348      0.45695645     20.51435       22.475061      4.7795805    
     33500   1.002022       0.45093459     20.516334      22.470255      4.7408883    
     34000   1.0018893      0.4501249      20.520088      22.473         4.7591046    
     34500   0.9991873      0.45181116     20.518719      22.469264      4.8304374    
     35000   0.99938721     0.45182675     20.515417      22.466278      4.8324699    
     35500   1.001749       0.4557558      20.512829      22.471161      4.8239224    
     36000   1.0090075      0.45013214     20.518372      22.481968      4.7956401    
     36500   0.99571158     0.45779975     20.515662      22.466983      4.7925653    
     37000   0.9926079      0.4576452      20.520304      22.466814      4.7671397    
     37500   1.000836       0.45156855     20.517294      22.470069      4.6961931    
     38000   0.99850959     0.44671726     20.509825      22.45426       4.7048153    
     38500   1.0009169      0.45568751     20.511573      22.468589      4.8375229    
     39000   1.0070071      0.44523904     20.513163      22.468865      4.717544     
     39500   0.9984646      0.4500462      20.51842       22.466116      4.7959971    
     40000   0.99531437     0.45334922     20.515503      22.461777      4.7607908    
     40500   0.99769799     0.45867602     20.523393      22.478569      4.7866571    
     41000   0.99627786     0.46412755     20.519638      22.478135      4.8290001    
     41500   1.0012058      0.450385       20.507941      22.460088      4.7806918    
     42000   0.99344975     0.45570832     20.519707      22.465543      4.8225271    
     42500   1.0018741      0.45779917     20.516152      22.476715      4.783982     
     43000   1.0046981      0.45096442     20.523172      22.481137      4.6836103    
     43500   0.99711892     0.45914427     20.517986      22.472762      4.7977428    
     44000   0.99788529     0.45973038     20.517737      22.474249      4.7952027    
     44500   0.99066063     0.46004293     20.520022      22.46601       4.9506707    
     45000   0.99630583     0.45979525     20.511778      22.465985      4.8480337    
     45500   1.0011089      0.45488668     20.518946      22.475449      4.8411695    
     46000   0.99819035     0.45437668     20.519922      22.471537      4.7792578    
     46500   0.9992136      0.45853542     20.514387      22.471696      4.8851111    
     47000   0.99631262     0.45291724     20.517974      22.465314      4.7714418    
     47500   1.0041961      0.45895298     20.511266      22.476466      4.824894     
     48000   0.99861022     0.45325973     20.521663      22.472791      4.8246257    
     48500   1.0019582      0.45632078     20.510585      22.469796      4.8249278    
     49000   0.99505303     0.45615129     20.518577      22.467261      4.9115083    
     49500   1.0023968      0.45612002     20.514501      22.474169      4.7908014    
     50000   0.99681928     0.45412994     20.51935       22.468662      4.8191406    
Loop time of 168.154 on 8 procs for 50000 steps with 32000 atoms

Performance: 308289.005 tau/day, 297.347 timesteps/s, 9.515 Matom-step/s
96.8% CPU use with 1 MPI tasks x 8 OpenMP threads

MPI task timing breakdown:
Section |  min time  |  avg time  |  max time  |%varavg| %total
---------------------------------------------------------------
Pair    | 1.1946     | 1.1946     | 1.1946     |   0.0 |  0.71
Bond    | 2.9508     | 2.9508     | 2.9508     |   0.0 |  1.75
Neigh   | 3.7137     | 3.7137     | 3.7137     |   0.0 |  2.21
Comm    | 19.921     | 19.921     | 19.921     |   0.0 | 11.85
Output  | 133.74     | 133.74     | 133.74     |   0.0 | 79.53
Modify  | 1.1801     | 1.1801     | 1.1801     |   0.0 |  0.70
Other   |            | 5.456      |            |       |  3.24

Nlocal:          32000 ave       32000 max       32000 min
Histogram: 1 0 0 0 0 0 0 0 0 0
Nghost:           9424 ave        9424 max        9424 min
Histogram: 1 0 0 0 0 0 0 0 0 0
Neighs:         155764 ave      155764 max      155764 min
Histogram: 1 0 0 0 0 0 0 0 0 0

Total # of neighbors = 155764
Ave neighs/atom = 4.867625
Ave special neighs/atom = 1.98
Neighbor list builds = 12545
Dangerous builds = 0
Total wall time: 0:02:50
