LAMMPS (30 Mar 2026)
KOKKOS mode with Kokkos version 5.1.99 is enabled
  using double precision
  using view layout = legacy
  will use up to 1 GPU(s) per node
  using 8 OpenMP thread(s) per MPI task
package kokkos
package kokkos gpu/aware on newton on neigh half
# FENE beadspring benchmark

units           lj
atom_style      bond
special_bonds   fene

read_data       input/data.chain
Reading data file ...
  orthogonal box = (-16.796 -16.796 -16.796) to (16.796 16.796 16.796)
  1 by 1 by 1 MPI processor grid
  reading atoms ...
  32000 atoms
  reading velocities ...
  32000 velocities
  scanning bonds ...
  1 = max bonds/atom
  orthogonal box = (-16.796 -16.796 -16.796) to (16.796 16.796 16.796)
  1 by 1 by 1 MPI processor grid
  reading bonds ...
  31680 bonds
Finding 1-2 1-3 1-4 neighbors ...
  special bond factors lj:    0        1        1       
  special bond factors coul:  0        1        1       
     2 = max # of 1-2 neighbors
     2 = max # of special neighbors
  special bonds CPU = 0.104 seconds
  read_data CPU = 2.464 seconds

neighbor        0.4 bin
neigh_modify    every 1 delay 1

bond_style      fene
bond_coeff      1 30.0 1.5 1.0 1.0

pair_style      lj/cut 1.12
pair_modify     shift yes
pair_coeff      1 1 1.0 1.0 1.12

fix             1 all nve
fix             2 all langevin 1.0 1.0 10.0 904297

fix             3 all imd 8887 version 3 unwrap off nowait off trate 50 time off box off coordinates on velocities on forces on
Using fix imd with asynchronous I/O.

thermo          500
timestep        0.012

run             50000

CITE-CITE-CITE-CITE-CITE-CITE-CITE-CITE-CITE-CITE-CITE-CITE-CITE

Your simulation uses code contributions which should be cited:

- KOKKOS package: https://doi.org/10.1145/3731599.3767498

@inproceedings{Johansson25,
 author = {A. Johansson and E. Weinberg and C. Trott and M. McCarthy and S. Moore},
 title = {{LAMMPS-KOKKOS}: {P}erformance Portable Molecular Dynamics Across Exascale Architectures},
 year = 2025,
 booktitle = {Proceedings of the SC '25 Workshops of the International Conference for High Performance Computing,
  Networking, Storage and Analysis},
 pages = {1217–1232},
}

CITE-CITE-CITE-CITE-CITE-CITE-CITE-CITE-CITE-CITE-CITE-CITE-CITE

Generated 0 of 0 mixed pair_coeff terms from geometric mixing rule
WARNING: Communication cutoff 1.52 is shorter than a bond length based estimate of 1.855. This may lead to errors. (src/comm.cpp:694)
Neighbor list info ...
  update: every = 1 steps, delay = 1 steps, check = yes
  max neighbors/atom: 2000, page size: 100000
  master list distance cutoff = 1.52
  ghost atom cutoff = 1.52
  binsize = 1.52, bins = 23 23 23
  1 neighbor lists, perpetual/occasional/extra = 1 0 0
  (1) pair lj/cut/kk, perpetual
      attributes: half, newton on, kokkos_device
      pair build: half/bin/newton/kk/device
      stencil: half/bin/3d
      bin: kk/device
WARNING: Communication cutoff 1.52 is shorter than a bond length based estimate of 1.855. This may lead to errors. (src/comm.cpp:694)
Per MPI rank memory allocation (min/avg/max) = 29.98 | 29.98 | 29.98 Mbytes
   Step          Temp          E_pair         E_mol          TotEng         Press     
         0   0.97029772     0.44484087     20.494523      22.394765      4.6721833    
       500   0.98782106     0.44122029     20.509347      22.432253      4.7238325    
      1000   0.99106287     0.45272958     20.511194      22.450472      4.7944015    
      1500   0.9999353      0.45540313     20.512857      22.468116      4.795174     
      2000   1.0003158      0.4578578      20.519283      22.477568      4.8758903    
      2500   1.0070651      0.45322382     20.514244      22.478019      4.764579     
      3000   1.0023014      0.46286638     20.513464      22.479735      4.7964492    
      3500   0.99921161     0.45307097     20.523017      22.474859      4.815923     
      4000   0.99858328     0.45551731     20.516228      22.469573      4.7772255    
      4500   1.0012277      0.45049682     20.524656      22.476948      4.7914701    
      5000   0.99961377     0.45840132     20.515129      22.472904      4.8133356    
      5500   1.0031174      0.44971097     20.520807      22.475147      4.783016     
      6000   1.0097955      0.45396805     20.516117      22.484731      4.7484666    
      6500   1.0071245      0.45806886     20.513393      22.482102      4.8289788    
      7000   1.0025076      0.45164743     20.514389      22.469751      4.7884445    
      7500   0.99595867     0.46057622     20.513486      22.467954      4.859758     
      8000   0.99553194     0.45032866     20.516059      22.459639      4.6909169    
      8500   0.99672894     0.45219809     20.513828      22.461073      4.7946659    
      9000   1.005962       0.45313769     20.514388      22.476421      4.8458091    
      9500   1.00112        0.45606847     20.51218       22.469882      4.9747256    
     10000   0.99678084     0.45809245     20.517285      22.470502      4.7668101    
     10500   1.0032821      0.44831717     20.515985      22.469179      4.8035517    
     11000   0.99029326     0.45151096     20.519032      22.455937      4.7320403    
     11500   1.0008549      0.45087287     20.512664      22.464772      4.8270938    
     12000   0.99544842     0.45481625     20.522249      22.470191      4.8728137    
     12500   1.0035168      0.4600271      20.508609      22.473864      4.8947674    
     13000   1.0062158      0.4593821      20.513601      22.482259      4.8161335    
     13500   1.0063258      0.44900858     20.517405      22.475855      4.834755     
     14000   0.99640982     0.45714539     20.523377      22.475091      4.9289926    
     14500   1.0031993      0.45022001     20.511062      22.466034      4.8137215    
     15000   1.0009785      0.45189767     20.51377       22.467088      4.7850424    
     15500   1.0005141      0.44666734     20.522275      22.469667      4.7425311    
     16000   1.0001299      0.4543704      20.524968      22.479486      4.8517158    
     16500   1.0040237      0.45431107     20.518722      22.479021      4.8411325    
     17000   1.0056713      0.45792799     20.512437      22.478825      4.796114     
     17500   0.99746776     0.44962405     20.524016      22.469795      4.8295622    
     18000   0.99577314     0.45120832     20.523429      22.468251      4.7807696    
     18500   0.9968072      0.4507196      20.520357      22.466241      4.7685743    
     19000   1.0093168      0.45013646     20.513871      22.477935      4.8330389    
     19500   1.0108702      0.45694176     20.517044      22.490244      4.7269263    
     20000   1.0036747      0.45587071     20.521166      22.482502      4.7322192    
     20500   1.0007399      0.45088565     20.518286      22.470235      4.7900698    
     21000   1.0005688      0.45164501     20.516104      22.468555      4.6861164    
     21500   1.0089363      0.4487665      20.514345      22.476468      4.8041761    
     22000   1.0077487      0.45267997     20.521797      22.486053      4.7618016    
     22500   1.0091354      0.45238975     20.519084      22.48513       4.803735     
     23000   1.0030653      0.45262506     20.516579      22.473755      4.7998017    
     23500   0.99701038     0.45681759     20.520197      22.472483      4.7905757    
     24000   1.0019701      0.46018463     20.522106      22.485199      4.8708661    
     24500   1.0087056      0.44837853     20.513088      22.474478      4.6759783    
     25000   0.99972761     0.45838437     20.524009      22.481937      4.8067773    
     25500   1.0023687      0.45299204     20.514933      22.471431      4.8640999    
     26000   1.0035917      0.45699931     20.517503      22.479843      4.8579471    
     26500   0.99955472     0.4609265      20.519642      22.479853      4.7475546    
     27000   1.0028778      0.44933368     20.517501      22.471105      4.8048778    
     27500   1.002028       0.45770001     20.515924      22.476619      4.7639279    
     28000   0.99995725     0.45367851     20.521332      22.474899      4.8887598    
     28500   0.99681912     0.45285582     20.514397      22.462435      4.8200074    
     29000   0.99510307     0.45179067     20.513543      22.457942      4.7682689    
     29500   1.0121567      0.45739817     20.511847      22.487433      4.793255     
     30000   1.0088268      0.45903651     20.518348      22.490578      4.8331087    
     30500   0.99623174     0.44823863     20.52672       22.46926       4.8201245    
     31000   0.99829584     0.45707777     20.520023      22.474498      4.7888221    
     31500   1.001204       0.45114118     20.519444      22.472344      4.8339284    
     32000   0.99804271     0.45938155     20.520435      22.476834      4.7930925    
     32500   1.0109704      0.44597708     20.523683      22.486068      4.7516791    
     33000   1.0031841      0.45919306     20.517209      22.481132      4.841993     
     33500   1.0012426      0.45740714     20.519705      22.478929      4.690029     
     34000   0.99967032     0.4541097      20.516095      22.469664      4.8259492    
     34500   1.0050729      0.45734143     20.518902      22.483805      4.8162076    
     35000   1.006852       0.45253051     20.516015      22.478777      4.8439707    
     35500   1.0066606      0.44689462     20.504425      22.461263      4.7245258    
     36000   1.006207       0.45025991     20.515894      22.475417      4.7697618    
     36500   0.9958054      0.45050456     20.516149      22.460315      4.8452548    
     37000   0.99588875     0.45777808     20.516807      22.468372      4.7692315    
     37500   1.0015821      0.45362972     20.515225      22.471181      4.8541982    
     38000   1.0034553      0.45919135     20.51366       22.477987      4.7738593    
     38500   0.9971289      0.46521963     20.513187      22.474053      4.8350071    
     39000   1.0016418      0.45400049     20.517609      22.474025      4.8127937    
     39500   1.0014812      0.45426056     20.520556      22.476991      4.775056     
     40000   0.99656336     0.45094648     20.522936      22.46868       4.863649     
     40500   1.0011647      0.45164787     20.515608      22.468956      4.770983     
     41000   0.99528526     0.45597992     20.512048      22.460909      4.766967     
     41500   1.0008454      0.45655554     20.51201       22.469787      4.8655671    
     42000   0.99942314     0.45043244     20.517326      22.466846      4.7934083    
     42500   0.99804753     0.45219502     20.514442      22.463662      4.7747913    
     43000   1.0062623      0.45211073     20.512318      22.473775      4.7263706    
     43500   1.0060849      0.45469478     20.521785      22.48556       4.8254188    
     44000   1.003034       0.45671302     20.515745      22.476962      4.7721079    
     44500   0.99701034     0.45696861     20.524339      22.476776      4.8351247    
     45000   1.0043992      0.45328203     20.512292      22.472126      4.8438151    
     45500   0.99742019     0.4543374      20.513133      22.463554      4.7895816    
     46000   1.0000125      0.45294987     20.510566      22.463488      4.766863     
     46500   1.0022545      0.45571675     20.515505      22.474557      4.8185426    
     47000   0.9976255      0.45594617     20.5194        22.471737      4.7816197    
     47500   0.99443817     0.45428046     20.521455      22.467346      4.8274955    
     48000   0.99381902     0.45515149     20.523315      22.469149      4.8060704    
     48500   0.99919441     0.45856346     20.514227      22.471535      4.7446305    
     49000   1.003465       0.45041588     20.51343       22.468996      4.7927591    
     49500   1.0019039      0.45193468     20.514922      22.469665      4.788571     
     50000   0.99971558     0.45156677     20.512861      22.463954      4.7688567    
Loop time of 37.7772 on 8 procs for 50000 steps with 32000 atoms

Performance: 1372257.804 tau/day, 1323.551 timesteps/s, 42.354 Matom-step/s
96.4% CPU use with 1 MPI tasks x 8 OpenMP threads

MPI task timing breakdown:
Section |  min time  |  avg time  |  max time  |%varavg| %total
---------------------------------------------------------------
Pair    | 0.8199     | 0.8199     | 0.8199     |   0.0 |  2.17
Bond    | 2.8852     | 2.8852     | 2.8852     |   0.0 |  7.64
Neigh   | 3.6836     | 3.6836     | 3.6836     |   0.0 |  9.75
Comm    | 22.379     | 22.379     | 22.379     |   0.0 | 59.24
Output  | 0.0071717  | 0.0071717  | 0.0071717  |   0.0 |  0.02
Modify  | 5.3429     | 5.3429     | 5.3429     |   0.0 | 14.14
Other   |            | 2.66       |            |       |  7.04

Nlocal:          32000 ave       32000 max       32000 min
Histogram: 1 0 0 0 0 0 0 0 0 0
Nghost:           9502 ave        9502 max        9502 min
Histogram: 1 0 0 0 0 0 0 0 0 0
Neighs:         155788 ave      155788 max      155788 min
Histogram: 1 0 0 0 0 0 0 0 0 0

Total # of neighbors = 155788
Ave neighs/atom = 4.868375
Ave special neighs/atom = 1.98
Neighbor list builds = 12546
Dangerous builds = 0
Total wall time: 0:01:23
