[CPU-CHECK][LAMMPS] host=sg023 pid=1881184 cpus=0-7
LAMMPS (30 Mar 2026)
KOKKOS mode with Kokkos version 5.1.99 is enabled
  using double precision
  using view layout = legacy
  will use up to 1 GPU(s) per node
Kokkos::OpenMP::initialize WARNING: OMP_PROC_BIND environment variable not set
  In general, for best performance with OpenMP 4.0 or better set OMP_PROC_BIND=spread and OMP_PLACES=threads
  For best performance with OpenMP 3.1 set OMP_PROC_BIND=true
  For unit testing set OMP_PROC_BIND=false

MPI detected: For OpenMP binding to work as intended, MPI ranks must be bound to exclusive CPU sets.

  using 8 OpenMP thread(s) per MPI task
Reading data file ...
  orthogonal box = (-16.796 -16.796 -16.796) to (16.796 16.796 16.796)
  1 by 1 by 1 MPI processor grid
  reading atoms ...
  32000 atoms
  reading velocities ...
  32000 velocities
  scanning bonds ...
  1 = max bonds/atom
  orthogonal box = (-16.796 -16.796 -16.796) to (16.796 16.796 16.796)
  1 by 1 by 1 MPI processor grid
  reading bonds ...
  31680 bonds
Finding 1-2 1-3 1-4 neighbors ...
  special bond factors lj:    0        1        1       
  special bond factors coul:  0        1        1       
     2 = max # of 1-2 neighbors
     2 = max # of special neighbors
  special bonds CPU = 0.028 seconds
  read_data CPU = 1.324 seconds

CITE-CITE-CITE-CITE-CITE-CITE-CITE-CITE-CITE-CITE-CITE-CITE-CITE

Your simulation uses code contributions which should be cited:
- KOKKOS package: https://doi.org/10.1145/3731599.3767498
The log file lists these citations in BibTeX format.

CITE-CITE-CITE-CITE-CITE-CITE-CITE-CITE-CITE-CITE-CITE-CITE-CITE

Generated 0 of 0 mixed pair_coeff terms from geometric mixing rule
WARNING: Communication cutoff 1.52 is shorter than a bond length based estimate of 1.855. This may lead to errors. (src/comm.cpp:694)
Neighbor list info ...
  update: every = 1 steps, delay = 1 steps, check = yes
  max neighbors/atom: 2000, page size: 100000
  master list distance cutoff = 1.52
  ghost atom cutoff = 1.52
  binsize = 1.52, bins = 23 23 23
  1 neighbor lists, perpetual/occasional/extra = 1 0 0
  (1) pair lj/cut/kk, perpetual
      attributes: half, newton on, kokkos_device
      pair build: half/bin/newton/kk/device
      stencil: half/bin/3d
      bin: kk/device
Setting up Verlet run ...
  Unit style    : lj
  Current step  : 0
  Time step     : 0.012
WARNING: Communication cutoff 1.52 is shorter than a bond length based estimate of 1.855. This may lead to errors. (src/comm.cpp:694)
Per MPI rank memory allocation (min/avg/max) = 21.68 | 21.68 | 21.68 Mbytes
   Step          Temp          E_pair         E_mol          TotEng         Press     
         0   0.97029772     0.44484087     20.494523      22.394765      4.6721833    
       500   0.97451954     0.44712101     20.512828      22.421683      4.7305913    
      1000   0.99430463     0.44263717     20.504939      22.438986      4.6401543    
      1500   1.0000786      0.44243079     20.517878      22.46038       4.7000963    
      2000   1.0012732      0.45327755     20.512007      22.467148      4.7536708    
      2500   0.99779147     0.44487168     20.519896      22.461408      4.8511188    
      3000   0.99899438     0.45328056     20.514461      22.466186      4.7846466    
      3500   1.0020494      0.45632029     20.516221      22.475569      4.828644     
      4000   1.0053331      0.45158036     20.50961       22.469142      4.7759873    
      4500   0.99576741     0.45637721     20.510449      22.460431      4.8569586    
      5000   1.0012266      0.45597407     20.516808      22.474575      4.7875945    
      5500   0.99923255     0.44974691     20.511338      22.459886      4.7370005    
      6000   1.0054423      0.45138099     20.507665      22.467163      4.7327472    
      6500   0.99191532     0.45650036     20.513507      22.457834      4.8617365    
      7000   0.99731278     0.45269378     20.514974      22.46359       4.7319167    
      7500   0.99593823     0.45447582     20.509952      22.458289      4.8169753    
      8000   1.0062244      0.4509687      20.509184      22.469442      4.784294     
      8500   1.0055858      0.45258887     20.507374      22.468294      4.8674316    
      9000   0.99855009     0.44930432     20.515529      22.462612      4.6743483    
      9500   0.99315321     0.45809254     20.513944      22.46172       4.7458031    
     10000   0.99301874     0.45737466     20.511833      22.458689      4.8168314    
     10500   0.99544589     0.44801532     20.514764      22.455901      4.8288689    
     11000   0.99917014     0.45508466     20.518424      22.472217      4.8742022    
     11500   1.0002448      0.45982986     20.517182      22.477332      4.9088079    
     12000   1.0021361      0.44826309     20.514553      22.465973      4.8441859    
     12500   0.99845707     0.45729979     20.504603      22.459542      4.7054434    
     13000   0.99505245     0.44956543     20.514795      22.456893      4.7635369    
     13500   0.99858378     0.44941568     20.517183      22.464427      4.7531653    
     14000   1.0086667      0.45158111     20.516006      22.480539      4.6932604    
     14500   1.0096169      0.45482952     20.515156      22.484364      4.7225747    
     15000   1.0062669      0.44938086     20.519319      22.478053      4.7783005    
     15500   0.99904101     0.45490684     20.522464      22.475885      4.7582057    
     16000   0.99475133     0.4533057      20.520154      22.46554       4.8093172    
     16500   0.99717718     0.45260419     20.514283      22.462607      4.8201051    
     17000   0.99665614     0.45733642     20.519394      22.471668      4.793686     
     17500   1.0063753      0.45227793     20.514804      22.476597      4.8207364    
     18000   0.99978274     0.45499578     20.51961       22.474233      4.789265     
     18500   1.0044284      0.45825369     20.520251      22.485101      4.8384614    
     19000   1.01292        0.45662209     20.507828      22.483782      4.8005072    
     19500   1.0071045      0.45461887     20.521195      22.486423      4.8289458    
     20000   0.99841421     0.45349986     20.531495      22.48257       4.8463818    
     20500   1.0100942      0.45658166     20.520579      22.492255      4.8257012    
     21000   1.0019052      0.45564297     20.518771      22.477225      4.7807645    
     21500   1.0020062      0.45715953     20.518021      22.478143      4.8853085    
     22000   1.0108959      0.44971752     20.517529      22.483543      4.7996331    
     22500   1.0131668      0.45479095     20.517708      22.492202      4.8091554    
     23000   1.0075037      0.45908346     20.514452      22.484744      4.8180805    
     23500   1.0062972      0.45286579     20.507226      22.46949       4.7524135    
     24000   0.99498712     0.45292564     20.511867      22.457227      4.7885882    
     24500   1.0036942      0.4567493      20.520859      22.483103      4.8746309    
     25000   0.99983        0.45774136     20.515283      22.472722      4.8516824    
     25500   1.0037786      0.45527442     20.515556      22.476451      4.779551     
     26000   1.0022839      0.45678599     20.511782      22.471947      4.7401642    
     26500   1.00208        0.44804142     20.517935      22.469049      4.8494857    
     27000   0.99751352     0.45323907     20.514576      22.464039      4.8110643    
     27500   0.99524924     0.44742495     20.517313      22.457566      4.8287732    
     28000   1.0030966      0.45625243     20.509629      22.47048       4.835983     
     28500   1.0044639      0.45453208     20.512666      22.473847      4.858623     
     29000   1.0037609      0.44833287     20.519848      22.473775      4.8524042    
     29500   1.0034474      0.45328025     20.515438      22.473842      4.7465161    
     30000   0.99799903     0.44709002     20.522218      22.46626       4.7849316    
     30500   0.99686064     0.45645044     20.518821      22.470515      4.8596974    
     31000   0.99300023     0.45549856     20.522344      22.467297      4.7459819    
     31500   1.0032098      0.45231294     20.520057      22.477137      4.8104595    
     32000   1.0037672      0.45790705     20.520934      22.484444      4.8233113    
     32500   0.99990462     0.45456278     20.517456      22.471829      4.734527     
     33000   1.0009655      0.4495495      20.510312      22.461263      4.8059464    
     33500   1.0018951      0.45710164     20.521652      22.481549      4.7812123    
     34000   1.0041131      0.45414628     20.509757      22.470026      4.8054517    
     34500   0.99875297     0.45660793     20.519766      22.474456      4.752432     
     35000   1.0047719      0.45305059     20.517735      22.477897      4.7680164    
     35500   1.0061317      0.45478122     20.514279      22.478211      4.7795326    
     36000   1.0030292      0.44943266     20.512517      22.466447      4.902737     
     36500   0.98993516     0.450905       20.510437      22.446199      4.7878313    
     37000   0.99327764     0.45878499     20.520075      22.468729      4.8899132    
     37500   1.0073044      0.45164491     20.511341      22.473895      4.9027775    
     38000   1.0000923      0.45169077     20.51839       22.470173      4.8294538    
     38500   1.0031185      0.45155864     20.520732      22.476921      4.7891753    
     39000   0.99704646     0.45252307     20.519941      22.467987      4.7313011    
     39500   1.0017686      0.45071553     20.516442      22.469764      4.7699803    
     40000   0.99831454     0.45809405     20.518304      22.473823      4.8526208    
     40500   1.0027224      0.44745449     20.515037      22.466528      4.8065451    
     41000   1.0002035      0.45155686     20.513585      22.4654        4.7769329    
     41500   0.99457824     0.45566455     20.523376      22.470861      4.7787878    
     42000   1.0015388      0.45276093     20.508862      22.463885      4.6950128    
     42500   0.99580728     0.4582197      20.524181      22.476065      4.8187112    
     43000   0.99946605     0.45284236     20.515525      22.46752       4.7854531    
     43500   0.99597813     0.45660953     20.513034      22.463564      4.8005521    
     44000   0.99711209     0.4529418      20.51534       22.463903      4.8002708    
     44500   0.99821472     0.44734333     20.516935      22.461554      4.7968811    
     45000   0.99947416     0.45440811     20.511302      22.464875      4.8181947    
     45500   0.99782355     0.45320312     20.516774      22.466666      4.8423581    
     46000   1.0029607      0.45349431     20.516715      22.474604      4.7535026    
     46500   1.0007868      0.4507449      20.521202      22.47308       4.7373403    
     47000   0.99512253     0.44858713     20.519569      22.460793      4.7938974    
     47500   1.0029869      0.45392455     20.516563      22.474921      4.8162355    
     48000   0.99993582     0.45244121     20.511613      22.463911      4.8285287    
     48500   0.99787717     0.45279816     20.519888      22.469455      4.6566515    
     49000   1.0038658      0.44764291     20.513611      22.467005      4.8029533    
     49500   0.99964339     0.45528925     20.517701      22.472409      4.8217007    
     50000   1.0045573      0.45461035     20.519479      22.480879      4.8155085    
Loop time of 167.681 on 8 procs for 50000 steps with 32000 atoms

Performance: 309158.633 tau/day, 298.185 timesteps/s, 9.542 Matom-step/s
97.0% CPU use with 1 MPI tasks x 8 OpenMP threads

MPI task timing breakdown:
Section |  min time  |  avg time  |  max time  |%varavg| %total
---------------------------------------------------------------
Pair    | 1.1885     | 1.1885     | 1.1885     |   0.0 |  0.71
Bond    | 2.9529     | 2.9529     | 2.9529     |   0.0 |  1.76
Neigh   | 3.7093     | 3.7093     | 3.7093     |   0.0 |  2.21
Comm    | 19.825     | 19.825     | 19.825     |   0.0 | 11.82
Output  | 133.37     | 133.37     | 133.37     |   0.0 | 79.54
Modify  | 1.1743     | 1.1743     | 1.1743     |   0.0 |  0.70
Other   |            | 5.456      |            |       |  3.25

Nlocal:          32000 ave       32000 max       32000 min
Histogram: 1 0 0 0 0 0 0 0 0 0
Nghost:           9447 ave        9447 max        9447 min
Histogram: 1 0 0 0 0 0 0 0 0 0
Neighs:         155690 ave      155690 max      155690 min
Histogram: 1 0 0 0 0 0 0 0 0 0

Total # of neighbors = 155690
Ave neighs/atom = 4.8653125
Ave special neighs/atom = 1.98
Neighbor list builds = 12552
Dangerous builds = 0
Total wall time: 0:02:49
