LAMMPS (30 Mar 2026)
KOKKOS mode with Kokkos version 5.1.99 is enabled
  using double precision
  using view layout = legacy
  will use up to 1 GPU(s) per node
  using 8 OpenMP thread(s) per MPI task
package kokkos
package kokkos gpu/aware on newton on neigh half
# FENE beadspring benchmark

units           lj
atom_style      bond
special_bonds   fene

read_data       input/data.chain
Reading data file ...
  orthogonal box = (-16.796 -16.796 -16.796) to (16.796 16.796 16.796)
  1 by 1 by 1 MPI processor grid
  reading atoms ...
  32000 atoms
  reading velocities ...
  32000 velocities
  scanning bonds ...
  1 = max bonds/atom
  orthogonal box = (-16.796 -16.796 -16.796) to (16.796 16.796 16.796)
  1 by 1 by 1 MPI processor grid
  reading bonds ...
  31680 bonds
Finding 1-2 1-3 1-4 neighbors ...
  special bond factors lj:    0        1        1       
  special bond factors coul:  0        1        1       
     2 = max # of 1-2 neighbors
     2 = max # of special neighbors
  special bonds CPU = 0.100 seconds
  read_data CPU = 2.468 seconds

neighbor        0.4 bin
neigh_modify    every 1 delay 1

bond_style      fene
bond_coeff      1 30.0 1.5 1.0 1.0

pair_style      lj/cut 1.12
pair_modify     shift yes
pair_coeff      1 1 1.0 1.0 1.12

fix             1 all nve
fix             2 all langevin 1.0 1.0 10.0 904297

fix             3 all imd 8887 version 3 unwrap off nowait off trate 5000 time off box off coordinates on velocities off forces off
Using fix imd with asynchronous I/O.

thermo          500
timestep        0.012

run             50000

CITE-CITE-CITE-CITE-CITE-CITE-CITE-CITE-CITE-CITE-CITE-CITE-CITE

Your simulation uses code contributions which should be cited:

- KOKKOS package: https://doi.org/10.1145/3731599.3767498

@inproceedings{Johansson25,
 author = {A. Johansson and E. Weinberg and C. Trott and M. McCarthy and S. Moore},
 title = {{LAMMPS-KOKKOS}: {P}erformance Portable Molecular Dynamics Across Exascale Architectures},
 year = 2025,
 booktitle = {Proceedings of the SC '25 Workshops of the International Conference for High Performance Computing,
  Networking, Storage and Analysis},
 pages = {1217–1232},
}

CITE-CITE-CITE-CITE-CITE-CITE-CITE-CITE-CITE-CITE-CITE-CITE-CITE

Generated 0 of 0 mixed pair_coeff terms from geometric mixing rule
WARNING: Communication cutoff 1.52 is shorter than a bond length based estimate of 1.855. This may lead to errors. (src/comm.cpp:694)
Neighbor list info ...
  update: every = 1 steps, delay = 1 steps, check = yes
  max neighbors/atom: 2000, page size: 100000
  master list distance cutoff = 1.52
  ghost atom cutoff = 1.52
  binsize = 1.52, bins = 23 23 23
  1 neighbor lists, perpetual/occasional/extra = 1 0 0
  (1) pair lj/cut/kk, perpetual
      attributes: half, newton on, kokkos_device
      pair build: half/bin/newton/kk/device
      stencil: half/bin/3d
      bin: kk/device
WARNING: Communication cutoff 1.52 is shorter than a bond length based estimate of 1.855. This may lead to errors. (src/comm.cpp:694)
Per MPI rank memory allocation (min/avg/max) = 29.98 | 29.98 | 29.98 Mbytes
   Step          Temp          E_pair         E_mol          TotEng         Press     
         0   0.97029772     0.44484087     20.494523      22.394765      4.6721833    
       500   0.9857999      0.44668219     20.502072      22.427408      4.7324624    
      1000   0.99417925     0.44791933     20.511778      22.450919      4.7199528    
      1500   1.0061285      0.45186271     20.50869       22.469698      4.758329     
      2000   0.9955265      0.45312221     20.520935      22.4673        4.8313978    
      2500   1.0041177      0.45169417     20.518109      22.475933      4.7411356    
      3000   0.99505254     0.46100132     20.519481      22.473014      4.8646125    
      3500   1.0024897      0.45851936     20.515928      22.478135      4.8637025    
      4000   1.0053958      0.45056422     20.524899      22.48351       4.730424     
      4500   1.0101593      0.45808808     20.518653      22.491933      4.7696044    
      5000   1.0005156      0.45622056     20.518482      22.475429      4.8520201    
      5500   1.0038938      0.45352876     20.519872      22.479194      4.8689396    
      6000   0.99965572     0.44954782     20.515986      22.464971      4.7713567    
      6500   0.99912673     0.45849252     20.515896      22.473032      4.7389987    
      7000   0.99890715     0.45292072     20.515547      22.466782      4.7757798    
      7500   1.0001951      0.44705211     20.516036      22.463333      4.7677532    
      8000   0.99706796     0.45722312     20.51598       22.468759      4.7442099    
      8500   1.003591       0.4520575      20.512083      22.46948       4.8306298    
      9000   1.0066922      0.45862202     20.509654      22.478267      4.8519518    
      9500   0.99697817     0.45243643     20.523352      22.471209      4.7880994    
     10000   1.002726       0.45253147     20.515553      22.472127      4.8032413    
     10500   1.0026845      0.45596783     20.518446      22.478393      4.8731039    
     11000   0.99746183     0.45603848     20.525814      22.477998      4.8371735    
     11500   1.0027025      0.45923259     20.521075      22.484314      4.89277      
     12000   1.0025665      0.44670868     20.514005      22.464516      4.8517597    
     12500   0.99619147     0.4507137      20.517414      22.462368      4.7070232    
     13000   0.99413103     0.44853195     20.513526      22.453208      4.7873301    
     13500   0.99954354     0.45135626     20.518547      22.469172      4.6964618    
     14000   1.0022916      0.45598045     20.512122      22.471493      4.7288024    
     14500   1.0012976      0.45488387     20.517825      22.474608      4.8518997    
     15000   1.001642       0.45307913     20.515237      22.470732      4.7947386    
     15500   1.0062694      0.45171238     20.515945      22.477014      4.8420151    
     16000   1.0068273      0.45155156     20.513216      22.474961      4.7188602    
     16500   1.0059561      0.4601751      20.517486      22.486549      4.9329084    
     17000   1.0032419      0.44921507     20.520713      22.474744      4.7392909    
     17500   1.0064052      0.46245141     20.518894      22.490906      4.8842902    
     18000   1.0034371      0.45536044     20.518687      22.479156      4.7929283    
     18500   1.0034342      0.45512395     20.515306      22.475535      4.7659684    
     19000   1.0050998      0.4543094      20.512877      22.474789      4.8252702    
     19500   1.004862       0.45602827     20.519369      22.482644      4.8307521    
     20000   1.0050158      0.44920684     20.512372      22.469055      4.7075061    
     20500   1.0034988      0.45752586     20.513154      22.475881      4.8402932    
     21000   1.0048275      0.45913501     20.519643      22.485972      4.8555188    
     21500   1.0064232      0.45384268     20.513008      22.476438      4.8459362    
     22000   1.001485       0.46063094     20.519986      22.482798      4.8641203    
     22500   1.0009956      0.45413658     20.509076      22.464659      4.740624     
     23000   0.99887297     0.45328784     20.515859      22.46741       4.8060982    
     23500   1.0014692      0.45504706     20.504452      22.461656      4.797136     
     24000   0.99238606     0.4495361      20.518904      22.456973      4.7240466    
     24500   0.99478443     0.44517169     20.521246      22.458547      4.7819882    
     25000   0.98919337     0.44775666     20.524181      22.455681      4.730987     
     25500   0.99953206     0.45676462     20.515008      22.471024      4.8546545    
     26000   0.99754305     0.44972909     20.512124      22.458121      4.785384     
     26500   1.0015017      0.45442693     20.516199      22.472832      4.8038916    
     27000   1.0039879      0.44909306     20.519222      22.47425       4.799436     
     27500   0.997735       0.45941368     20.517794      22.473764      4.7851801    
     28000   0.99901104     0.45401888     20.51707       22.469559      4.7714999    
     28500   0.9997774      0.46108924     20.511841      22.472549      4.9266418    
     29000   1.0035723      0.44922195     20.518288      22.472821      4.8374351    
     29500   1.002963       0.45247832     20.519586      22.476462      4.7796349    
     30000   0.99936527     0.45209352     20.516316      22.46741       4.7743653    
     30500   1.0103688      0.45450443     20.514101      22.484111      4.880544     
     31000   1.0074132      0.46020744     20.513298      22.484578      4.7978807    
     31500   1.00854        0.45634053     20.518813      22.487916      4.7863352    
     32000   1.0113208      0.45025621     20.515938      22.483128      4.8485171    
     32500   0.99852441     0.46224102     20.525708      22.485689      4.8706582    
     33000   1.001412       0.46078038     20.50884       22.471691      4.8595505    
     33500   0.99471022     0.45637248     20.5101        22.458491      4.8774667    
     34000   1.002524       0.45351254     20.515263      22.472514      4.8676227    
     34500   1.0035243      0.45644209     20.515701      22.477383      4.8335122    
     35000   0.99726853     0.45481258     20.521299      22.471968      4.7415145    
     35500   0.99679809     0.45782397     20.512815      22.46579       4.7789979    
     36000   1.0013254      0.45900797     20.515098      22.476047      4.7802887    
     36500   1.0111855      0.45659763     20.509919      22.483248      4.8293827    
     37000   0.99496769     0.45937537     20.519946      22.471726      4.7510771    
     37500   0.99287226     0.46214337     20.516103      22.467509      4.8308545    
     38000   1.0028889      0.45413824     20.51325       22.471674      4.7668563    
     38500   1.0071756      0.45043048     20.515175      22.476321      4.6898255    
     39000   1.0051528      0.45572713     20.524769      22.488178      4.7829658    
     39500   1.0035762      0.4563946      20.515776      22.477488      4.8807481    
     40000   0.99790966     0.45132812     20.520826      22.468972      4.709745     
     40500   0.99865152     0.45585254     20.523833      22.477616      4.7911348    
     41000   0.99950552     0.45059279     20.523159      22.472963      4.7991176    
     41500   0.99950771     0.46045835     20.524105      22.483778      4.8301627    
     42000   1.0013673      0.46138394     20.518395      22.481783      4.8485463    
     42500   1.0014863      0.45323805     20.515243      22.470664      4.8102452    
     43000   0.99734147     0.45630634     20.510427      22.462699      4.7519422    
     43500   1.002265       0.44604402     20.517301      22.466696      4.7978173    
     44000   0.99888107     0.45138907     20.518245      22.467908      4.7676341    
     44500   1.0017125      0.44835297     20.527829      22.478704      4.8039672    
     45000   0.99607066     0.45804791     20.517537      22.469645      4.8955331    
     45500   1.0035203      0.45196627     20.508432      22.465632      4.7698584    
     46000   1.0012875      0.45168058     20.507422      22.460987      4.7134289    
     46500   1.0006088      0.45146648     20.511507      22.46384       4.7304634    
     47000   1.0001919      0.45125823     20.51981       22.471309      4.7717115    
     47500   0.99967612     0.45485786     20.520968      22.475293      4.8033608    
     48000   1.0012024      0.45112816     20.516764      22.469649      4.7539194    
     48500   0.99911031     0.45824134     20.517515      22.474374      4.8379838    
     49000   1.00568        0.44978035     20.520319      22.478572      4.7669207    
     49500   0.99901314     0.45179526     20.513534      22.463802      4.7419184    
     50000   0.99862843     0.44273954     20.520562      22.461197      4.7546653    
Loop time of 33.7343 on 8 procs for 50000 steps with 32000 atoms

Performance: 1536714.490 tau/day, 1482.171 timesteps/s, 47.429 Matom-step/s
98.6% CPU use with 1 MPI tasks x 8 OpenMP threads

MPI task timing breakdown:
Section |  min time  |  avg time  |  max time  |%varavg| %total
---------------------------------------------------------------
Pair    | 0.80265    | 0.80265    | 0.80265    |   0.0 |  2.38
Bond    | 2.8185     | 2.8185     | 2.8185     |   0.0 |  8.35
Neigh   | 3.6813     | 3.6813     | 3.6813     |   0.0 | 10.91
Comm    | 22.206     | 22.206     | 22.206     |   0.0 | 65.83
Output  | 0.0037682  | 0.0037682  | 0.0037682  |   0.0 |  0.01
Modify  | 1.6543     | 1.6543     | 1.6543     |   0.0 |  4.90
Other   |            | 2.568      |            |       |  7.61

Nlocal:          32000 ave       32000 max       32000 min
Histogram: 1 0 0 0 0 0 0 0 0 0
Nghost:           9518 ave        9518 max        9518 min
Histogram: 1 0 0 0 0 0 0 0 0 0
Neighs:         155791 ave      155791 max      155791 min
Histogram: 1 0 0 0 0 0 0 0 0 0

Total # of neighbors = 155791
Ave neighs/atom = 4.8684687
Ave special neighs/atom = 1.98
Neighbor list builds = 12550
Dangerous builds = 0
Total wall time: 0:01:19
