LAMMPS (30 Mar 2026)
KOKKOS mode with Kokkos version 5.1.99 is enabled
  using double precision
  using view layout = legacy
  will use up to 1 GPU(s) per node
  using 8 OpenMP thread(s) per MPI task
package kokkos
package kokkos gpu/aware on newton on neigh half
# FENE beadspring benchmark

units           lj
atom_style      bond
special_bonds   fene

read_data       input/data.chain
Reading data file ...
  orthogonal box = (-16.796 -16.796 -16.796) to (16.796 16.796 16.796)
  1 by 1 by 1 MPI processor grid
  reading atoms ...
  32000 atoms
  reading velocities ...
  32000 velocities
  scanning bonds ...
  1 = max bonds/atom
  orthogonal box = (-16.796 -16.796 -16.796) to (16.796 16.796 16.796)
  1 by 1 by 1 MPI processor grid
  reading bonds ...
  31680 bonds
Finding 1-2 1-3 1-4 neighbors ...
  special bond factors lj:    0        1        1       
  special bond factors coul:  0        1        1       
     2 = max # of 1-2 neighbors
     2 = max # of special neighbors
  special bonds CPU = 0.100 seconds
  read_data CPU = 2.488 seconds

neighbor        0.4 bin
neigh_modify    every 1 delay 1

bond_style      fene
bond_coeff      1 30.0 1.5 1.0 1.0

pair_style      lj/cut 1.12
pair_modify     shift yes
pair_coeff      1 1 1.0 1.0 1.12

fix             1 all nve
fix             2 all langevin 1.0 1.0 10.0 904297

fix             3 all imd 8887 version 3 unwrap off nowait off trate 1 time off box off coordinates on velocities on forces on
Using fix imd with asynchronous I/O.

thermo          500
timestep        0.012

run             50000

CITE-CITE-CITE-CITE-CITE-CITE-CITE-CITE-CITE-CITE-CITE-CITE-CITE

Your simulation uses code contributions which should be cited:

- KOKKOS package: https://doi.org/10.1145/3731599.3767498

@inproceedings{Johansson25,
 author = {A. Johansson and E. Weinberg and C. Trott and M. McCarthy and S. Moore},
 title = {{LAMMPS-KOKKOS}: {P}erformance Portable Molecular Dynamics Across Exascale Architectures},
 year = 2025,
 booktitle = {Proceedings of the SC '25 Workshops of the International Conference for High Performance Computing,
  Networking, Storage and Analysis},
 pages = {1217–1232},
}

CITE-CITE-CITE-CITE-CITE-CITE-CITE-CITE-CITE-CITE-CITE-CITE-CITE

Generated 0 of 0 mixed pair_coeff terms from geometric mixing rule
WARNING: Communication cutoff 1.52 is shorter than a bond length based estimate of 1.855. This may lead to errors. (src/comm.cpp:694)
Neighbor list info ...
  update: every = 1 steps, delay = 1 steps, check = yes
  max neighbors/atom: 2000, page size: 100000
  master list distance cutoff = 1.52
  ghost atom cutoff = 1.52
  binsize = 1.52, bins = 23 23 23
  1 neighbor lists, perpetual/occasional/extra = 1 0 0
  (1) pair lj/cut/kk, perpetual
      attributes: half, newton on, kokkos_device
      pair build: half/bin/newton/kk/device
      stencil: half/bin/3d
      bin: kk/device
WARNING: Communication cutoff 1.52 is shorter than a bond length based estimate of 1.855. This may lead to errors. (src/comm.cpp:694)
Per MPI rank memory allocation (min/avg/max) = 29.98 | 29.98 | 29.98 Mbytes
   Step          Temp          E_pair         E_mol          TotEng         Press     
         0   0.97029772     0.44484087     20.494523      22.394765      4.6721833    
       500   0.99108637     0.44798095     20.511732      22.446296      4.7431606    
      1000   0.99199741     0.44957669     20.515904      22.453431      4.763173     
      1500   1.0030996      0.45260746     20.514225      22.471435      4.7989441    
      2000   1.0006345      0.45379535     20.516559      22.471259      4.7340387    
      2500   1.0030426      0.45291566     20.521452      22.478885      4.8347552    
      3000   0.99678125     0.45775817     20.517006      22.46989       4.8215692    
      3500   1.0132781      0.4473873      20.515386      22.482643      4.7794324    
      4000   0.99876722     0.46240487     20.521736      22.482245      4.8661505    
      4500   0.99989081     0.45670041     20.519499      22.475989      4.7773808    
      5000   0.99624637     0.45614326     20.517483      22.467949      4.7546525    
      5500   0.99756289     0.45901665     20.525221      22.480536      4.7595843    
      6000   0.99585026     0.45346943     20.515962      22.463161      4.8420788    
      6500   0.99775573     0.45158056     20.512426      22.460593      4.7452787    
      7000   0.99398868     0.45462863     20.516763      22.462328      4.7735681    
      7500   1.0018987      0.45737183     20.526667      22.48684       4.7899131    
      8000   1.0112215      0.45463652     20.515071      22.486492      4.7562601    
      8500   0.99893681     0.44978017     20.516719      22.464858      4.8053738    
      9000   0.99838702     0.45127646     20.5068        22.45561       4.7667758    
      9500   0.99370213     0.45209066     20.516308      22.458905      4.876948     
     10000   1.0056058      0.45166795     20.516476      22.476506      4.7562872    
     10500   1.0008568      0.45487113     20.51046       22.46657       4.7822246    
     11000   1.000269       0.45134593     20.512249      22.463952      4.7547788    
     11500   1.001138       0.45504314     20.517873      22.474576      4.6862716    
     12000   1.008157       0.44692309     20.512223      22.471334      4.7118683    
     12500   0.99363433     0.45458243     20.517131      22.462118      4.8035303    
     13000   0.99809938     0.45073988     20.511634      22.459477      4.7936449    
     13500   0.99418083     0.45246759     20.521672      22.465365      4.7730981    
     14000   0.9962292      0.45549014     20.516872      22.466659      4.7888579    
     14500   1.0027129      0.45629201     20.518124      22.478438      4.8212854    
     15000   1.0014018      0.45800196     20.520525      22.480583      4.8305521    
     15500   1.0085305      0.46163958     20.516975      22.491363      4.868777     
     16000   1.0073112      0.45615153     20.528053      22.495124      4.8271243    
     16500   1.0067912      0.45335198     20.521009      22.484501      4.7708034    
     17000   0.99967353     0.45775959     20.514966      22.47219       4.7272038    
     17500   0.99635975     0.45453623     20.513292      22.462322      4.8948519    
     18000   1.0022688      0.45112732     20.517389      22.471873      4.8358595    
     18500   1.0057474      0.44814353     20.514492      22.47121       4.8232845    
     19000   0.99260639     0.45511151     20.518151      22.462126      4.8115713    
     19500   0.99959629     0.45275111     20.51761       22.469709      4.784901     
     20000   0.99296152     0.46055565     20.522454      22.472405      4.8334006    
     20500   1.004417       0.45099627     20.509627      22.467202      4.7752107    
     21000   0.99435721     0.45374429     20.513725      22.458959      4.7107108    
     21500   0.99491705     0.45586134     20.514954      22.463144      4.6910767    
     22000   0.9972729      0.45199074     20.512536      22.46039       4.7745715    
     22500   1.0049161      0.45417483     20.512196      22.473698      4.7205736    
     23000   1.0012367      0.46292144     20.517408      22.482137      4.7587118    
     23500   1.0028401      0.45303054     20.517855      22.475099      4.785642     
     24000   1.0079245      0.45020439     20.513297      22.475341      4.7657248    
     24500   1.0012866      0.46055284     20.520181      22.482617      4.8622279    
     25000   1.0032791      0.45499979     20.515171      22.475042      4.8052671    
     25500   1.0065299      0.44886668     20.519404      22.478019      4.7907111    
     26000   1.0049269      0.46293068     20.5127        22.482974      4.7876376    
     26500   1.00223        0.45589888     20.525713      22.48491       4.7948497    
     27000   0.99913324     0.45455625     20.521965      22.475174      4.7460341    
     27500   1.0034112      0.4483908      20.51412       22.467581      4.7794991    
     28000   1.0032882      0.45499394     20.515225      22.475104      4.81062      
     28500   0.99980807     0.4573288      20.51753       22.474524      4.7368498    
     29000   1.001278       0.44921149     20.516268      22.46735       4.81924      
     29500   1.0022452      0.44824484     20.517918      22.469483      4.7492448    
     30000   1.0071723      0.4530792      20.512059      22.47585       4.8608001    
     30500   1.0032092      0.45730129     20.513315      22.475383      4.7883849    
     31000   1.0033976      0.45668314     20.513606      22.475338      4.8531795    
     31500   1.0072177      0.45657691     20.516404      22.483761      4.8363204    
     32000   1.0052671      0.45880937     20.519179      22.485842      4.8032649    
     32500   1.0049195      0.45020549     20.521754      22.479292      4.7660337    
     33000   0.99802617     0.44897849     20.513736      22.459707      4.8267721    
     33500   0.99501014     0.45513543     20.512713      22.460317      4.8332703    
     34000   0.99278724     0.4536729      20.515148      22.457955      4.8422996    
     34500   0.99824404     0.45236385     20.512692      22.462375      4.8235985    
     35000   1.0010988      0.45697132     20.511112      22.469684      4.7436196    
     35500   0.99899606     0.45348681     20.521395      22.473329      4.8228163    
     36000   0.99862571     0.45937895     20.515683      22.472954      4.8285083    
     36500   1.0093195      0.45487655     20.51753       22.486338      4.7826588    
     37000   1.0068771      0.45446739     20.513263      22.477999      4.8277627    
     37500   1.0067496      0.44442919     20.517334      22.47184       4.812028     
     38000   1.0027991      0.46178171     20.513426      22.479359      4.8158792    
     38500   0.99943909     0.45408963     20.51985       22.473051      4.7746735    
     39000   1.0053636      0.45397009     20.519968      22.481936      4.8114614    
     39500   0.99812994     0.45319608     20.52666       22.477004      4.7140148    
     40000   1.0098012      0.45532786     20.509639      22.479621      4.7804199    
     40500   0.99936894     0.45873869     20.515412      22.473158      4.7846451    
     41000   1.0013064      0.45092654     20.510774      22.463613      4.7156778    
     41500   1.0040771      0.45412578     20.51783       22.478024      4.8228378    
     42000   0.99155678     0.45251386     20.510942      22.450745      4.7833904    
     42500   0.99605814     0.44335109     20.514323      22.451714      4.8368091    
     43000   0.99829892     0.44815901     20.51165       22.457211      4.7320881    
     43500   1.0014413      0.44637241     20.516613      22.465101      4.7724158    
     44000   0.9960251      0.45385184     20.514539      22.462382      4.8184081    
     44500   0.99556115     0.45874119     20.512389      22.464425      4.8421217    
     45000   1.0014787      0.45212559     20.514246      22.468542      4.8043548    
     45500   0.99680978     0.45371344     20.518983      22.467865      4.7932496    
     46000   1.0027715      0.45820776     20.512266      22.474584      4.8952189    
     46500   1.0049146      0.45378011     20.513232      22.474337      4.6677392    
     47000   0.99369019     0.45715307     20.521569      22.469211      4.7435151    
     47500   0.99448521     0.45773963     20.515076      22.464497      4.8751386    
     48000   0.99789156     0.45765884     20.510132      22.464581      4.7854709    
     48500   1.0001383      0.45174184     20.516318      22.468221      4.7978638    
     49000   1.0014259      0.45625571     20.514165      22.472513      4.8703238    
     49500   1.0032786      0.45076891     20.51123       22.46687       4.7621229    
     50000   1.0032499      0.44585012     20.509773      22.460451      4.7726274    
Loop time of 216.514 on 8 procs for 50000 steps with 32000 atoms

Performance: 239430.178 tau/day, 230.932 timesteps/s, 7.390 Matom-step/s
95.7% CPU use with 1 MPI tasks x 8 OpenMP threads

MPI task timing breakdown:
Section |  min time  |  avg time  |  max time  |%varavg| %total
---------------------------------------------------------------
Pair    | 0.88732    | 0.88732    | 0.88732    |   0.0 |  0.41
Bond    | 2.9527     | 2.9527     | 2.9527     |   0.0 |  1.36
Neigh   | 3.8597     | 3.8597     | 3.8597     |   0.0 |  1.78
Comm    | 23.645     | 23.645     | 23.645     |   0.0 | 10.92
Output  | 0.0050347  | 0.0050347  | 0.0050347  |   0.0 |  0.00
Modify  | 182.4      | 182.4      | 182.4      |   0.0 | 84.24
Other   |            | 2.765      |            |       |  1.28

Nlocal:          32000 ave       32000 max       32000 min
Histogram: 1 0 0 0 0 0 0 0 0 0
Nghost:           9493 ave        9493 max        9493 min
Histogram: 1 0 0 0 0 0 0 0 0 0
Neighs:         155463 ave      155463 max      155463 min
Histogram: 1 0 0 0 0 0 0 0 0 0

Total # of neighbors = 155463
Ave neighs/atom = 4.8582187
Ave special neighs/atom = 1.98
Neighbor list builds = 12551
Dangerous builds = 0
Total wall time: 0:04:22
