LAMMPS (30 Mar 2026)
KOKKOS mode with Kokkos version 5.1.99 is enabled
  using double precision
  using view layout = legacy
  will use up to 1 GPU(s) per node
  using 8 OpenMP thread(s) per MPI task
package kokkos
package kokkos gpu/aware on newton on neigh half
# FENE beadspring benchmark

units           lj
atom_style      bond
special_bonds   fene

read_data       input/data.chain
Reading data file ...
  orthogonal box = (-16.796 -16.796 -16.796) to (16.796 16.796 16.796)
  1 by 1 by 1 MPI processor grid
  reading atoms ...
  32000 atoms
  reading velocities ...
  32000 velocities
  scanning bonds ...
  1 = max bonds/atom
  orthogonal box = (-16.796 -16.796 -16.796) to (16.796 16.796 16.796)
  1 by 1 by 1 MPI processor grid
  reading bonds ...
  31680 bonds
Finding 1-2 1-3 1-4 neighbors ...
  special bond factors lj:    0        1        1       
  special bond factors coul:  0        1        1       
     2 = max # of 1-2 neighbors
     2 = max # of special neighbors
  special bonds CPU = 0.105 seconds
  read_data CPU = 2.854 seconds

neighbor        0.4 bin
neigh_modify    every 1 delay 1

bond_style      fene
bond_coeff      1 30.0 1.5 1.0 1.0

pair_style      lj/cut 1.12
pair_modify     shift yes
pair_coeff      1 1 1.0 1.0 1.12

fix             1 all nve
fix             2 all langevin 1.0 1.0 10.0 904297

fix             3 all imd 8887 version 3 unwrap off nowait off trate 5000 time off box off coordinates on velocities off forces off
Using fix imd with asynchronous I/O.

thermo          500
timestep        0.012

run             50000

CITE-CITE-CITE-CITE-CITE-CITE-CITE-CITE-CITE-CITE-CITE-CITE-CITE

Your simulation uses code contributions which should be cited:

- KOKKOS package: https://doi.org/10.1145/3731599.3767498

@inproceedings{Johansson25,
 author = {A. Johansson and E. Weinberg and C. Trott and M. McCarthy and S. Moore},
 title = {{LAMMPS-KOKKOS}: {P}erformance Portable Molecular Dynamics Across Exascale Architectures},
 year = 2025,
 booktitle = {Proceedings of the SC '25 Workshops of the International Conference for High Performance Computing,
  Networking, Storage and Analysis},
 pages = {1217–1232},
}

CITE-CITE-CITE-CITE-CITE-CITE-CITE-CITE-CITE-CITE-CITE-CITE-CITE

Generated 0 of 0 mixed pair_coeff terms from geometric mixing rule
WARNING: Communication cutoff 1.52 is shorter than a bond length based estimate of 1.855. This may lead to errors. (src/comm.cpp:694)
Neighbor list info ...
  update: every = 1 steps, delay = 1 steps, check = yes
  max neighbors/atom: 2000, page size: 100000
  master list distance cutoff = 1.52
  ghost atom cutoff = 1.52
  binsize = 1.52, bins = 23 23 23
  1 neighbor lists, perpetual/occasional/extra = 1 0 0
  (1) pair lj/cut/kk, perpetual
      attributes: half, newton on, kokkos_device
      pair build: half/bin/newton/kk/device
      stencil: half/bin/3d
      bin: kk/device
WARNING: Communication cutoff 1.52 is shorter than a bond length based estimate of 1.855. This may lead to errors. (src/comm.cpp:694)
Per MPI rank memory allocation (min/avg/max) = 29.98 | 29.98 | 29.98 Mbytes
   Step          Temp          E_pair         E_mol          TotEng         Press     
         0   0.97029772     0.44484087     20.494523      22.394765      4.6721833    
       500   0.99108422     0.44798462     20.511732      22.446297      4.7432356    
      1000   0.99109855     0.44953197     20.514141      22.450275      4.7706109    
      1500   0.99916224     0.44888088     20.513106      22.460684      4.7798456    
      2000   0.99677789     0.45015055     20.518128      22.463399      4.7170348    
      2500   1.0000698      0.45132693     20.519426      22.470811      4.8153139    
      3000   0.99657934     0.45377559     20.519199      22.467797      4.8390369    
      3500   0.99313378     0.4556734      20.516134      22.461461      4.8057036    
      4000   0.99048565     0.44488786     20.514374      22.444944      4.7757929    
      4500   0.99713116     0.44691015     20.514216      22.456777      4.8406556    
      5000   1.0007132      0.45380366     20.507439      22.462266      4.7673319    
      5500   0.9999149      0.46283221     20.511659      22.474316      4.8120921    
      6000   0.9991792      0.45240907     20.517647      22.468778      4.8134013    
      6500   0.99616656     0.45414778     20.516828      22.465179      4.7386122    
      7000   0.99370994     0.45318168     20.511816      22.455516      4.8513782    
      7500   0.99503838     0.45409823     20.516389      22.462998      4.6737185    
      8000   1.0004617      0.45383249     20.516127      22.470605      4.7949939    
      8500   1.0052618      0.44990876     20.512998      22.470752      4.776615     
      9000   1.0054318      0.45005578     20.512846      22.471003      4.7631541    
      9500   1.006146       0.45611825     20.515987      22.481277      4.7646073    
     10000   1.0008981      0.45545535     20.532043      22.488799      4.819199     
     10500   1.0036574      0.4621219      20.517458      22.485019      4.8893526    
     11000   1.0049727      0.44907688     20.521351      22.47784       4.8336739    
     11500   0.99971139     0.45442205     20.517453      22.471395      4.6864572    
     12000   1.002294       0.45836499     20.520707      22.482466      4.8070753    
     12500   1.0023346      0.45700092     20.519628      22.480084      4.8375463    
     13000   1.0085005      0.44789678     20.510348      22.470949      4.7611595    
     13500   0.997555       0.45699845     20.512727      22.466011      4.7789428    
     14000   1.0069281      0.4490117      20.5141        22.473456      4.7608457    
     14500   1.004747       0.45481948     20.513365      22.475258      4.7638728    
     15000   0.99928804     0.45775672     20.513778      22.47042       4.764163     
     15500   0.99965607     0.45225645     20.513259      22.464953      4.8351116    
     16000   1.0073292      0.44735051     20.519798      22.478095      4.8049938    
     16500   1.0049721      0.45141223     20.518545      22.477368      4.7749873    
     17000   1.0058192      0.45197858     20.515578      22.476238      4.831427     
     17500   0.99959004     0.45744744     20.51668       22.473465      4.8382743    
     18000   0.99858455     0.4571445      20.51553       22.470505      4.781844     
     18500   1.000176       0.44978893     20.517164      22.46717       4.7720154    
     19000   1.0044363      0.45193624     20.506089      22.464632      4.7296975    
     19500   1.0008643      0.45570862     20.519021      22.475979      4.7609008    
     20000   1.0021968      0.45951872     20.514684      22.477451      4.8028269    
     20500   1.0040001      0.46417096     20.505438      22.475562      4.8728048    
     21000   1.0001129      0.45301089     20.517903      22.471036      4.7409914    
     21500   1.0010654      0.45550488     20.510832      22.467888      4.833547     
     22000   1.0011272      0.45519977     20.515554      22.472398      4.7910922    
     22500   0.9928259      0.45137731     20.513591      22.454161      4.8292113    
     23000   1.0017399      0.45150272     20.508661      22.462727      4.746905     
     23500   1.0031292      0.45239044     20.523522      22.480559      4.8019633    
     24000   1.0051823      0.45765638     20.513695      22.479078      4.7402718    
     24500   0.99934456     0.44951288     20.516661      22.465144      4.7405649    
     25000   0.99151349     0.45473029     20.510149      22.452103      4.7823389    
     25500   1.002339       0.44967863     20.515397      22.468538      4.795746     
     26000   1.0002982      0.45770243     20.513048      22.47115       4.7675947    
     26500   0.99918804     0.45404619     20.517406      22.470188      4.7528996    
     27000   1.0013242      0.46102665     20.512643      22.475609      4.8267633    
     27500   1.0041893      0.45725324     20.517424      22.480914      4.8436558    
     28000   0.99738341     0.45720705     20.521239      22.474474      4.7225929    
     28500   0.99939869     0.45483615     20.512846      22.466733      4.8383573    
     29000   1.0060589      0.44546769     20.510336      22.464845      4.7062521    
     29500   1.0061729      0.44930005     20.518421      22.476933      4.7415017    
     30000   1.0019971      0.45779066     20.513942      22.474681      4.8571284    
     30500   1.0049895      0.4594193      20.513871      22.480727      4.8496915    
     31000   1.0044152      0.46020321     20.515031      22.48181       4.7995105    
     31500   1.0064258      0.45732145     20.50882       22.475733      4.7038638    
     32000   1.0005906      0.45060952     20.516703      22.468151      4.812059     
     32500   1.0014695      0.45149147     20.511075      22.464724      4.734485     
     33000   1.0028103      0.44745274     20.518107      22.469728      4.8384102    
     33500   1.0066703      0.4466851      20.51434       22.470984      4.7582829    
     34000   1.0014854      0.45449819     20.511902      22.468581      4.7807638    
     34500   0.99669022     0.45670067     20.517657      22.469347      4.8768335    
     35000   1.0030539      0.45097778     20.519577      22.475089      4.8079903    
     35500   0.99686041     0.45524123     20.517865      22.46835       4.7859323    
     36000   0.99870893     0.45372506     20.506798      22.45854       4.7608392    
     36500   1.0062883      0.4451967      20.51074       22.465322      4.7158233    
     37000   0.99376839     0.45959784     20.512538      22.462742      4.8134584    
     37500   0.99516786     0.45210161     20.522562      22.467369      4.7786982    
     38000   1.0068668      0.45464859     20.517573      22.482475      4.7585317    
     38500   1.0028489      0.45647142     20.51393       22.474628      4.7695658    
     39000   0.9998847      0.45540447     20.5204        22.475585      4.7390698    
     39500   1.0012971      0.45356395     20.520217      22.475679      4.7885675    
     40000   1.0030756      0.45712254     20.513955      22.475644      4.7941513    
     40500   1.0035589      0.45953731     20.515489      22.480318      4.8113197    
     41000   1.0007578      0.4606109      20.522872      22.484572      4.8448921    
     41500   1.003149       0.45664178     20.517606      22.478924      4.7857984    
     42000   1.0054838      0.45042069     20.515947      22.474546      4.8799472    
     42500   0.99785399     0.45847992     20.517199      22.472413      4.8336194    
     43000   1.0016208      0.45592507     20.520739      22.479048      4.8309973    
     43500   1.0058096      0.45553693     20.516397      22.480602      4.7815901    
     44000   0.99859972     0.45800051     20.519785      22.475639      4.7457665    
     44500   1.0029953      0.45689082     20.514931      22.476268      4.8848263    
     45000   1.0063135      0.44976229     20.526703      22.485888      4.7741959    
     45500   1.010119       0.45521455     20.522688      22.493034      4.8735226    
     46000   1.0068536      0.45780811     20.518384      22.486426      4.7389358    
     46500   1.0002627      0.45469789     20.517762      22.472807      4.7865312    
     47000   1.0056062      0.45294058     20.518163      22.479466      4.7332575    
     47500   1.0019947      0.45747044     20.516579      22.476995      4.8799636    
     48000   0.99931996     0.45470975     20.510038      22.463681      4.8545176    
     48500   0.99759741     0.44936547     20.51375       22.459465      4.7406673    
     49000   1.0046391      0.45791851     20.50856       22.47339       4.7900042    
     49500   0.99908603     0.45515044     20.515493      22.469225      4.8563482    
     50000   1.0012434      0.45146877     20.520008      22.473295      4.8001504    
Loop time of 33.6405 on 8 procs for 50000 steps with 32000 atoms

Performance: 1541000.166 tau/day, 1486.304 timesteps/s, 47.562 Matom-step/s
98.7% CPU use with 1 MPI tasks x 8 OpenMP threads

MPI task timing breakdown:
Section |  min time  |  avg time  |  max time  |%varavg| %total
---------------------------------------------------------------
Pair    | 0.79483    | 0.79483    | 0.79483    |   0.0 |  2.36
Bond    | 2.7772     | 2.7772     | 2.7772     |   0.0 |  8.26
Neigh   | 3.6938     | 3.6938     | 3.6938     |   0.0 | 10.98
Comm    | 22.177     | 22.177     | 22.177     |   0.0 | 65.92
Output  | 0.0037363  | 0.0037363  | 0.0037363  |   0.0 |  0.01
Modify  | 1.6341     | 1.6341     | 1.6341     |   0.0 |  4.86
Other   |            | 2.559      |            |       |  7.61

Nlocal:          32000 ave       32000 max       32000 min
Histogram: 1 0 0 0 0 0 0 0 0 0
Nghost:           9534 ave        9534 max        9534 min
Histogram: 1 0 0 0 0 0 0 0 0 0
Neighs:         155957 ave      155957 max      155957 min
Histogram: 1 0 0 0 0 0 0 0 0 0

Total # of neighbors = 155957
Ave neighs/atom = 4.8736562
Ave special neighs/atom = 1.98
Neighbor list builds = 12554
Dangerous builds = 0
Total wall time: 0:01:21
