LAMMPS (30 Mar 2026)
KOKKOS mode with Kokkos version 5.1.99 is enabled
  using double precision
  using view layout = legacy
  will use up to 1 GPU(s) per node
  using 8 OpenMP thread(s) per MPI task
package kokkos
package kokkos gpu/aware on newton on neigh half
# FENE beadspring benchmark

units           lj
atom_style      bond
special_bonds   fene

read_data       input/data.chain
Reading data file ...
  orthogonal box = (-16.796 -16.796 -16.796) to (16.796 16.796 16.796)
  1 by 1 by 1 MPI processor grid
  reading atoms ...
  32000 atoms
  reading velocities ...
  32000 velocities
  scanning bonds ...
  1 = max bonds/atom
  orthogonal box = (-16.796 -16.796 -16.796) to (16.796 16.796 16.796)
  1 by 1 by 1 MPI processor grid
  reading bonds ...
  31680 bonds
Finding 1-2 1-3 1-4 neighbors ...
  special bond factors lj:    0        1        1       
  special bond factors coul:  0        1        1       
     2 = max # of 1-2 neighbors
     2 = max # of special neighbors
  special bonds CPU = 0.100 seconds
  read_data CPU = 2.471 seconds

neighbor        0.4 bin
neigh_modify    every 1 delay 1

bond_style      fene
bond_coeff      1 30.0 1.5 1.0 1.0

pair_style      lj/cut 1.12
pair_modify     shift yes
pair_coeff      1 1 1.0 1.0 1.12

fix             1 all nve
fix             2 all langevin 1.0 1.0 10.0 904297

fix             3 all imd 8887 version 3 unwrap off nowait off trate 1 time off box off coordinates on velocities on forces on
Using fix imd with asynchronous I/O.

thermo          500
timestep        0.012

run             50000

CITE-CITE-CITE-CITE-CITE-CITE-CITE-CITE-CITE-CITE-CITE-CITE-CITE

Your simulation uses code contributions which should be cited:

- KOKKOS package: https://doi.org/10.1145/3731599.3767498

@inproceedings{Johansson25,
 author = {A. Johansson and E. Weinberg and C. Trott and M. McCarthy and S. Moore},
 title = {{LAMMPS-KOKKOS}: {P}erformance Portable Molecular Dynamics Across Exascale Architectures},
 year = 2025,
 booktitle = {Proceedings of the SC '25 Workshops of the International Conference for High Performance Computing,
  Networking, Storage and Analysis},
 pages = {1217–1232},
}

CITE-CITE-CITE-CITE-CITE-CITE-CITE-CITE-CITE-CITE-CITE-CITE-CITE

Generated 0 of 0 mixed pair_coeff terms from geometric mixing rule
WARNING: Communication cutoff 1.52 is shorter than a bond length based estimate of 1.855. This may lead to errors. (src/comm.cpp:694)
Neighbor list info ...
  update: every = 1 steps, delay = 1 steps, check = yes
  max neighbors/atom: 2000, page size: 100000
  master list distance cutoff = 1.52
  ghost atom cutoff = 1.52
  binsize = 1.52, bins = 23 23 23
  1 neighbor lists, perpetual/occasional/extra = 1 0 0
  (1) pair lj/cut/kk, perpetual
      attributes: half, newton on, kokkos_device
      pair build: half/bin/newton/kk/device
      stencil: half/bin/3d
      bin: kk/device
WARNING: Communication cutoff 1.52 is shorter than a bond length based estimate of 1.855. This may lead to errors. (src/comm.cpp:694)
Per MPI rank memory allocation (min/avg/max) = 29.98 | 29.98 | 29.98 Mbytes
   Step          Temp          E_pair         E_mol          TotEng         Press     
         0   0.97029772     0.44484087     20.494523      22.394765      4.6721833    
       500   0.98109565     0.45144166     20.508809      22.431848      4.8167726    
      1000   0.99247782     0.44589024     20.512846      22.447407      4.7484171    
      1500   0.99747963     0.45276801     20.50818       22.45712       4.8310804    
      2000   0.99800931     0.45349049     20.511043      22.4615        4.703409     
      2500   1.0009954      0.45184959     20.512732      22.466027      4.7318127    
      3000   1.0036336      0.44752688     20.518608      22.471538      4.7340406    
      3500   1.0012933      0.45208528     20.514815      22.468794      4.7223035    
      4000   0.99579919     0.45291099     20.514161      22.460724      4.7310076    
      4500   1.0012441      0.457564       20.506904      22.466287      4.8052471    
      5000   0.9958732      0.45410765     20.516184      22.464055      4.8224555    
      5500   1.0012245      0.45482485     20.517616      22.474231      4.7972781    
      6000   1.0102396      0.44618953     20.513353      22.474854      4.7582755    
      6500   1.00514        0.45127119     20.514817      22.473751      4.7739395    
      7000   1.012194       0.45231752     20.519011      22.489572      4.7510767    
      7500   1.0130964      0.45798083     20.518987      22.496565      4.7612554    
      8000   1.0008147      0.45725762     20.523844      22.482277      4.6942538    
      8500   0.99360855     0.45414437     20.519856      22.464366      4.7394437    
      9000   0.99590233     0.45358575     20.515282      22.462674      4.7759528    
      9500   0.9966443      0.45089777     20.514242      22.460059      4.7673501    
     10000   0.99497535     0.45313594     20.513699      22.459251      4.687598     
     10500   1.0023291      0.45466415     20.515737      22.473848      4.746827     
     11000   1.0033902      0.45681113     20.510591      22.47244       4.8452251    
     11500   1.0061328      0.45396225     20.515582      22.478697      4.7854885    
     12000   1.0068671      0.4445736      20.518971      22.473798      4.7280163    
     12500   1.0015794      0.45834421     20.51125       22.471916      4.814055     
     13000   1.0049788      0.45122707     20.511943      22.470591      4.7910331    
     13500   1.0008464      0.45882149     20.516801      22.476845      4.9347316    
     14000   0.9992812      0.45413011     20.516248      22.469253      4.814984     
     14500   0.99470038     0.46009987     20.513663      22.465766      4.8157875    
     15000   0.99795705     0.454432       20.519513      22.470834      4.7727301    
     15500   1.0030992      0.4510587      20.514123      22.469784      4.7829211    
     16000   1.0024034      0.45569841     20.518238      22.477494      4.7747858    
     16500   0.99551479     0.45763665     20.515593      22.466455      4.8831334    
     17000   0.99865245     0.45015696     20.512503      22.460592      4.7956218    
     17500   1.0003323      0.45866301     20.515672      22.474786      4.8364101    
     18000   0.99789332     0.45643734     20.5152        22.468431      4.8342891    
     18500   0.99332406     0.45203057     20.517583      22.459553      4.6994335    
     19000   0.99404903     0.44777267     20.505098      22.443897      4.8525037    
     19500   0.99371983     0.44936505     20.513947      22.453845      4.8019622    
     20000   1.0001339      0.45028039     20.50976       22.460194      4.7650951    
     20500   1.0090121      0.4537794      20.512515      22.479765      4.8328343    
     21000   1.0028725      0.45725547     20.519077      22.480595      4.8487663    
     21500   1.0023805      0.45894815     20.515807      22.478279      4.8585155    
     22000   1.0070817      0.45841403     20.516072      22.485061      4.7508844    
     22500   1.0025066      0.4517504      20.513912      22.469375      4.7466987    
     23000   1.0073396      0.45423771     20.524082      22.489282      4.7513917    
     23500   1.0113266      0.46150309     20.516024      22.49447       4.8646864    
     24000   1.002425       0.45846568     20.515815      22.477871      4.7398936    
     24500   0.99728304     0.45641614     20.515098      22.467392      4.7997263    
     25000   0.99963908     0.44874883     20.513345      22.461506      4.7329278    
     25500   0.99249407     0.45542716     20.517958      22.462079      4.7653559    
     26000   1.001127       0.45096087     20.517851      22.470455      4.6889498    
     26500   1.0024392      0.45783809     20.52294       22.484389      4.7849466    
     27000   1.0010625      0.45563499     20.523285      22.480467      4.7928059    
     27500   1.0020142      0.45168611     20.514956      22.469616      4.7982037    
     28000   0.99973036     0.45884616     20.517619      22.476014      4.8263516    
     28500   1.0017897      0.45075998     20.51434       22.467737      4.78