LAMMPS (30 Mar 2026)
KOKKOS mode with Kokkos version 5.1.99 is enabled
  using double precision
  using view layout = legacy
  will use up to 1 GPU(s) per node
  using 8 OpenMP thread(s) per MPI task
package kokkos
package kokkos gpu/aware on newton on neigh half
# FENE beadspring benchmark

units           lj
atom_style      bond
special_bonds   fene

read_data       input/data.chain
Reading data file ...
  orthogonal box = (-16.796 -16.796 -16.796) to (16.796 16.796 16.796)
  1 by 1 by 1 MPI processor grid
  reading atoms ...
  32000 atoms
  reading velocities ...
  32000 velocities
  scanning bonds ...
  1 = max bonds/atom
  orthogonal box = (-16.796 -16.796 -16.796) to (16.796 16.796 16.796)
  1 by 1 by 1 MPI processor grid
  reading bonds ...
  31680 bonds
Finding 1-2 1-3 1-4 neighbors ...
  special bond factors lj:    0        1        1       
  special bond factors coul:  0        1        1       
     2 = max # of 1-2 neighbors
     2 = max # of special neighbors
  special bonds CPU = 0.101 seconds
  read_data CPU = 2.470 seconds

neighbor        0.4 bin
neigh_modify    every 1 delay 1

bond_style      fene
bond_coeff      1 30.0 1.5 1.0 1.0

pair_style      lj/cut 1.12
pair_modify     shift yes
pair_coeff      1 1 1.0 1.0 1.12

fix             1 all nve
fix             2 all langevin 1.0 1.0 10.0 904297

fix             3 all imd 8887 version 3 unwrap off nowait off trate 500 time off box off coordinates on velocities off forces off
Using fix imd with asynchronous I/O.

thermo          500
timestep        0.012

run             50000

CITE-CITE-CITE-CITE-CITE-CITE-CITE-CITE-CITE-CITE-CITE-CITE-CITE

Your simulation uses code contributions which should be cited:

- KOKKOS package: https://doi.org/10.1145/3731599.3767498

@inproceedings{Johansson25,
 author = {A. Johansson and E. Weinberg and C. Trott and M. McCarthy and S. Moore},
 title = {{LAMMPS-KOKKOS}: {P}erformance Portable Molecular Dynamics Across Exascale Architectures},
 year = 2025,
 booktitle = {Proceedings of the SC '25 Workshops of the International Conference for High Performance Computing,
  Networking, Storage and Analysis},
 pages = {1217–1232},
}

CITE-CITE-CITE-CITE-CITE-CITE-CITE-CITE-CITE-CITE-CITE-CITE-CITE

Generated 0 of 0 mixed pair_coeff terms from geometric mixing rule
WARNING: Communication cutoff 1.52 is shorter than a bond length based estimate of 1.855. This may lead to errors. (src/comm.cpp:694)
Neighbor list info ...
  update: every = 1 steps, delay = 1 steps, check = yes
  max neighbors/atom: 2000, page size: 100000
  master list distance cutoff = 1.52
  ghost atom cutoff = 1.52
  binsize = 1.52, bins = 23 23 23
  1 neighbor lists, perpetual/occasional/extra = 1 0 0
  (1) pair lj/cut/kk, perpetual
      attributes: half, newton on, kokkos_device
      pair build: half/bin/newton/kk/device
      stencil: half/bin/3d
      bin: kk/device
WARNING: Communication cutoff 1.52 is shorter than a bond length based estimate of 1.855. This may lead to errors. (src/comm.cpp:694)
Per MPI rank memory allocation (min/avg/max) = 29.98 | 29.98 | 29.98 Mbytes
   Step          Temp          E_pair         E_mol          TotEng         Press     
         0   0.97029772     0.44484087     20.494523      22.394765      4.6721833    
       500   0.98580085     0.44668106     20.502071      22.427407      4.7324617    
      1000   0.99124119     0.44851416     20.516467      22.451796      4.7916032    
      1500   1.0020208      0.45142007     20.508222      22.462626      4.7480946    
      2000   0.99612527     0.44594796     20.512468      22.452557      4.8137086    
      2500   0.99653478     0.45399597     20.516755      22.465506      4.7817235    
      3000   0.99403261     0.45833072     20.518307      22.46764       4.8952584    
      3500   0.99672253     0.45624012     20.517012      22.468289      4.8689703    
      4000   1.0038225      0.45089163     20.513855      22.470433      4.762947     
      4500   0.99384363     0.45386836     20.51883       22.463417      4.822572     
      5000   0.99620713     0.45502882     20.514383      22.463676      4.6930248    
      5500   0.99801192     0.45599228     20.516802      22.469765      4.8946097    
      6000   0.99440462     0.45627898     20.514353      22.462192      4.8767805    
      6500   0.99895395     0.45024327     20.518971      22.467598      4.8280853    
      7000   0.99591658     0.45635456     20.514232      22.464415      4.7623161    
      7500   0.99719974     0.4541222      20.510984      22.460859      4.7728687    
      8000   1.00014        0.45295506     20.515635      22.468753      4.6761843    
      8500   0.99669431     0.45266142     20.518306      22.465962      4.8530716    
      9000   0.9999478      0.4526748      20.514346      22.466895      4.8840425    
      9500   0.99924686     0.44846267     20.515618      22.462904      4.782655     
     10000   1.00708        0.45368278     20.518011      22.482266      4.8306812    
     10500   1.0013514      0.45105805     20.515842      22.46888       4.8450145    
     11000   0.99782458     0.45099883     20.513087      22.460776      4.7025417    
     11500   0.99874156     0.46130826     20.507379      22.466753      4.7490416    
     12000   0.99599614     0.45463941     20.509485      22.458072      4.7000806    
     12500   1.0002595      0.45098531     20.510106      22.461433      4.8291373    
     13000   0.99533239     0.45715726     20.513924      22.464033      4.9233297    
     13500   0.99801529     0.45909297     20.515345      22.471414      4.8137152    
     14000   1.00412        0.4519441      20.513724      22.471801      4.8571715    
     14500   0.99957363     0.45174012     20.515999      22.467053      4.808174     
     15000   0.99937864     0.45436705     20.511249      22.464637      4.7579022    
     15500   0.989678       0.45782547     20.521445      22.463741      4.7897979    
     16000   1.0018794      0.45548447     20.51156       22.469816      4.7260325    
     16500   0.99313395     0.45764443     20.512754      22.460053      4.842177     
     17000   1.000367       0.45625346     20.516688      22.473445      4.8077771    
     17500   1.0027848      0.44986411     20.514845      22.46884       4.777206     
     18000   0.99458002     0.45489171     20.513806      22.460521      4.7861493    
     18500   0.99963628     0.45454223     20.514099      22.468048      4.8579308    
     19000   0.99956054     0.45319895     20.522037      22.47453       4.6953474    
     19500   0.99816272     0.46157044     20.512862      22.47163       4.7951433    
     20000   0.99978881     0.45731981     20.516763      22.473719      4.7875299    
     20500   1.0016816      0.45329728     20.522302      22.478074      4.8681946    
     21000   1.0029968      0.45873053     20.512462      22.475641      4.7683555    
     21500   1.0060281      0.45577755     20.515633      22.480405      4.8784435    
     22000   0.99491461     0.45930369     20.517762      22.469391      4.7649134    
     22500   0.99222554     0.45481154     20.517054      22.460157      4.7641592    
     23000   1.0056055      0.45250512     20.525277      22.486143      4.7677899    
     23500   1.0006079      0.45286877     20.518545      22.472279      4.802981     
     24000   1.0030868      0.45007519     20.520338      22.474996      4.7545232    
     24500   1.0074349      0.4487709      20.510742      22.470618      4.7402542    
     25000   1.0037846      0.45609182     20.513091      22.474813      4.7544609    
     25500   1.0003856      0.45714332     20.517086      22.474761      4.7756536    
     26000   1.0023278      0.45006387     20.51451       22.468018      4.875282     
     26500   1.0013129      0.45295899     20.514689      22.46957       4.7871395    
     27000   0.99852032     0.45056575     20.515497      22.463796      4.7853052    
     27500   0.99904651     0.45006811     20.511021      22.459612      4.8134402    
     28000   1.0001705      0.45138798     20.518865      22.470462      4.7633027    
     28500   1.002382       0.44692588     20.519705      22.470157      4.8098386    
     29000   0.99476466     0.45815607     20.516767      22.467024      4.8076583    
     29500   0.99681144     0.45460814     20.522285      22.472064      4.7604902    
     30000   1.0093259      0.44912569     20.518657      22.481724      4.8476224    
     30500   0.99953857     0.45542926     20.517067      22.471758      4.8030305    
     31000   0.99545866     0.44857371     20.517887      22.459602      4.7762541    
     31500   1.0001792      0.45335429     20.507759      22.461335      4.773973     
     32000   1.0033519      0.45039533     20.515605      22.470981      4.7735254    
     32500   1.0052272      0.44994711     20.51793       22.47567       4.7630976    
     33000   1.0097071      0.45335325     20.520847      22.488714      4.8152339    
     33500   1.0064016      0.45001492     20.514992      22.474562      4.7033659    
     34000   1.0013519      0.45761714     20.515473      22.47507       4.8180796    
     34500   1.0011977      0.45505773     20.513556      22.470363      4.703176     
     35000   1.0028081      0.45280449     20.515558      22.472528      4.7818098    
     35500   0.99865827     0.45914318     20.515695      22.472779      4.8318291    
     36000   0.98986778     0.45574435     20.523097      22.463597      4.7046252    
     36500   1.0038485      0.45601047     20.515815      22.477551      4.8307391    
     37000   1.0045653      0.45444868     20.511073      22.472322      4.7952149    
     37500   1.0045054      0.45082276     20.513123      22.470657      4.8001042    
     38000   1.000158       0.45582987     20.519284      22.475304      4.7751918    
     38500   1.0013952      0.45584022     20.51219       22.470076      4.7000294    
     39000   0.99568887     0.45135901     20.519143      22.463988      4.7533594    
     39500   1.0038788      0.45471367     20.517033      22.477518      4.7914403    
     40000   1.0046857      0.44635191     20.518304      22.471637      4.7553005    
     40500   1.0075896      0.45393998     20.517131      22.482408      4.8357505    
     41000   1.0005321      0.45083334     20.515238      22.466822      4.740606     
     41500   1.0069725      0.45204399     20.514778      22.477233      4.8009664    
     42000   1.0121883      0.45659027     20.519868      22.494693      4.8048189    
     42500   1.0063345      0.45206551     20.522816      22.484336      4.8536876    
     43000   0.99839724     0.45325073     20.524745      22.475545      4.7771504    
     43500   1.0001364      0.45681033     20.514118      22.471087      4.8382453    
     44000   0.99938559     0.44883698     20.517147      22.465016      4.7073151    
     44500   0.99612659     0.45065088     20.511503      22.456297      4.7953665    
     45000   1.0028162      0.45569159     20.507245      22.467114      4.8359029    
     45500   1.0057477      0.45253159     20.514806      22.475912      4.7605969    
     46000   1.0087163      0.45689646     20.517649      22.487572      4.8308053    
     46500   0.99930657     0.45610731     20.530026      22.485047      4.771606     
     47000   1.0008023      0.46211593     20.514206      22.477478      4.7328929    
     47500   1.0080803      0.45020374     20.516197      22.478474      4.7786971    
     48000   1.0000605      0.45124763     20.514066      22.465358      4.6885834    
     48500   0.99714629     0.45628932     20.519875      22.471837      4.8563807    
     49000   1.0030032      0.45508293     20.518587      22.478127      4.7790635    
     49500   0.99904925     0.45476636     20.519404      22.472698      4.8060398    
     50000   0.99722969     0.45205458     20.520135      22.467988      4.7928908    
Loop time of 33.8472 on 8 procs for 50000 steps with 32000 atoms

Performance: 1531590.090 tau/day, 1477.228 timesteps/s, 47.271 Matom-step/s
98.8% CPU use with 1 MPI tasks x 8 OpenMP threads

MPI task timing breakdown:
Section |  min time  |  avg time  |  max time  |%varavg| %total
---------------------------------------------------------------
Pair    | 0.80836    | 0.80836    | 0.80836    |   0.0 |  2.39
Bond    | 2.804      | 2.804      | 2.804      |   0.0 |  8.28
Neigh   | 3.6951     | 3.6951     | 3.6951     |   0.0 | 10.92
Comm    | 22.21      | 22.21      | 22.21      |   0.0 | 65.62
Output  | 0.0055263  | 0.0055263  | 0.0055263  |   0.0 |  0.02
Modify  | 1.7619     | 1.7619     | 1.7619     |   0.0 |  5.21
Other   |            | 2.563      |            |       |  7.57

Nlocal:          32000 ave       32000 max       32000 min
Histogram: 1 0 0 0 0 0 0 0 0 0
Nghost:           9513 ave        9513 max        9513 min
Histogram: 1 0 0 0 0 0 0 0 0 0
Neighs:         155685 ave      155685 max      155685 min
Histogram: 1 0 0 0 0 0 0 0 0 0

Total # of neighbors = 155685
Ave neighs/atom = 4.8651563
Ave special neighs/atom = 1.98
Neighbor list builds = 12554
Dangerous builds = 0
Total wall time: 0:01:19
