LAMMPS (30 Mar 2026)
KOKKOS mode with Kokkos version 5.1.99 is enabled
  using double precision
  using view layout = legacy
  will use up to 1 GPU(s) per node
  using 8 OpenMP thread(s) per MPI task
package kokkos
package kokkos gpu/aware on newton on neigh half
# FENE beadspring benchmark

units           lj
atom_style      bond
special_bonds   fene

read_data       input/data.chain
Reading data file ...
  orthogonal box = (-16.796 -16.796 -16.796) to (16.796 16.796 16.796)
  1 by 1 by 1 MPI processor grid
  reading atoms ...
  32000 atoms
  reading velocities ...
  32000 velocities
  scanning bonds ...
  1 = max bonds/atom
  orthogonal box = (-16.796 -16.796 -16.796) to (16.796 16.796 16.796)
  1 by 1 by 1 MPI processor grid
  reading bonds ...
  31680 bonds
Finding 1-2 1-3 1-4 neighbors ...
  special bond factors lj:    0        1        1       
  special bond factors coul:  0        1        1       
     2 = max # of 1-2 neighbors
     2 = max # of special neighbors
  special bonds CPU = 0.100 seconds
  read_data CPU = 2.487 seconds

neighbor        0.4 bin
neigh_modify    every 1 delay 1

bond_style      fene
bond_coeff      1 30.0 1.5 1.0 1.0

pair_style      lj/cut 1.12
pair_modify     shift yes
pair_coeff      1 1 1.0 1.0 1.12

fix             1 all nve
fix             2 all langevin 1.0 1.0 10.0 904297

fix             3 all imd 8887 version 3 unwrap off nowait off trate 8 time off box off coordinates on velocities on forces on
Using fix imd with asynchronous I/O.

thermo          500
timestep        0.012

run             50000

CITE-CITE-CITE-CITE-CITE-CITE-CITE-CITE-CITE-CITE-CITE-CITE-CITE

Your simulation uses code contributions which should be cited:

- KOKKOS package: https://doi.org/10.1145/3731599.3767498

@inproceedings{Johansson25,
 author = {A. Johansson and E. Weinberg and C. Trott and M. McCarthy and S. Moore},
 title = {{LAMMPS-KOKKOS}: {P}erformance Portable Molecular Dynamics Across Exascale Architectures},
 year = 2025,
 booktitle = {Proceedings of the SC '25 Workshops of the International Conference for High Performance Computing,
  Networking, Storage and Analysis},
 pages = {1217–1232},
}

CITE-CITE-CITE-CITE-CITE-CITE-CITE-CITE-CITE-CITE-CITE-CITE-CITE

Generated 0 of 0 mixed pair_coeff terms from geometric mixing rule
WARNING: Communication cutoff 1.52 is shorter than a bond length based estimate of 1.855. This may lead to errors. (src/comm.cpp:694)
Neighbor list info ...
  update: every = 1 steps, delay = 1 steps, check = yes
  max neighbors/atom: 2000, page size: 100000
  master list distance cutoff = 1.52
  ghost atom cutoff = 1.52
  binsize = 1.52, bins = 23 23 23
  1 neighbor lists, perpetual/occasional/extra = 1 0 0
  (1) pair lj/cut/kk, perpetual
      attributes: half, newton on, kokkos_device
      pair build: half/bin/newton/kk/device
      stencil: half/bin/3d
      bin: kk/device
WARNING: Communication cutoff 1.52 is shorter than a bond length based estimate of 1.855. This may lead to errors. (src/comm.cpp:694)
Per MPI rank memory allocation (min/avg/max) = 29.98 | 29.98 | 29.98 Mbytes
   Step          Temp          E_pair         E_mol          TotEng         Press     
         0   0.97029772     0.44484087     20.494523      22.394765      4.6721833    
       500   0.98821201     0.44794355     20.511229      22.441444      4.6594597    
      1000   0.99396218     0.45126808     20.507008      22.449173      4.752142     
      1500   0.99103724     0.44262418     20.524054      22.453188      4.7471627    
      2000   1.0043898      0.44854653     20.509995      22.46508       4.8273493    
      2500   1.0038457      0.45094275     20.520962      22.477626      4.787674     
      3000   1.0025363      0.45501906     20.518495      22.477271      4.6913102    
      3500   1.0047376      0.45215698     20.513949      22.473165      4.8104849    
      4000   1.0054929      0.45345089     20.513806      22.475449      4.8329647    
      4500   1.005564       0.45051734     20.522446      22.481263      4.7949672    
      5000   1.0003588      0.45659772     20.511975      22.469064      4.8208117    
      5500   1.0004765      0.4522996      20.511251      22.464218      4.7489925    
      6000   1.0037429      0.45659397     20.512268      22.474429      4.8449372    
      6500   1.0101704      0.45425778     20.510671      22.480137      4.8180833    
      7000   1.002106       0.44958261     20.520045      22.47274       4.8020648    
      7500   1.0024232      0.45500509     20.517268      22.475861      4.7870207    
      8000   1.0031778      0.46052777     20.517896      22.483143      4.7919511    
      8500   1.0010204      0.45888232     20.524786      22.485152      4.839644     
      9000   0.99685851     0.45446359     20.518388      22.468093      4.8359286    
      9500   1.0039406      0.45506469     20.506944      22.467872      4.7463278    
     10000   1.0010876      0.45526666     20.505021      22.461872      4.7166237    
     10500   1.0009335      0.45560922     20.519564      22.476526      4.7694359    
     11000   1.0004927      0.44919309     20.517142      22.467027      4.7993687    
     11500   0.99969108     0.45479282     20.515279      22.469561      4.877118     
     12000   0.99717123     0.45299407     20.510009      22.458714      4.711246     
     12500   0.99192608     0.44972581     20.516226      22.453795      4.7103896    
     13000   0.99732102     0.4476529      20.519887      22.463474      4.703356     
     13500   1.0003193      0.45069169     20.519067      22.47019       4.7484087    
     14000   0.9985671      0.4537397      20.516913      22.468456      4.8073956    
     14500   1.0099861      0.4492971      20.517408      22.481636      4.7563759    
     15000   1.0049633      0.45139616     20.510941      22.469735      4.6971234    
     15500   1.0020069      0.45552272     20.509934      22.46842       4.7530434    
     16000   1.0005339      0.45051583     20.515805      22.467074      4.8004971    
     16500   1.0074519      0.45328585     20.51451       22.478926      4.6966315    
     17000   0.99804171     0.45190451     20.523426      22.472346      4.8519078    
     17500   1.0087318      0.4507535      20.510274      22.474078      4.8123653    
     18000   1.0050159      0.45051043     20.519315      22.477302      4.8020744    
     18500   1.0012662      0.45514833     20.520522      22.477523      4.7741199    
     19000   1.0042237      0.45381834     20.511572      22.471679      4.7528841    
     19500   1.0083889      0.45871364     20.511838      22.483087      4.7712972    
     20000   1.0003836      0.45408742     20.523339      22.477955      4.8543091    
     20500   1.0054917      0.45737967     20.513939      22.479509      4.8418527    
     21000   1.012375       0.45117015     20.518075      22.48776       4.801706     
     21500   1.0079369      0.45190125     20.523223      22.486982      4.7631439    
     22000   0.99930827     0.45355544     20.523592      22.476064      4.8424947    
     22500   0.9960526      0.45865348     20.519756      22.472442      4.7388601    
     23000   1.0048705      0.44962526     20.519242      22.476126      4.8094568    
     23500   1.0114075      0.45188549     20.517476      22.486425      4.771257     
     24000   0.99646367     0.45728298     20.519666      22.471598      4.6920806    
     24500   1.0017124      0.45824059     20.519636      22.480398      4.7982664    
     25000   1.0058832      0.45475849     20.517932      22.481469      4.7056596    
     25500   1.004015       0.45162995     20.523327      22.480933      4.7427809    
     26000   1.0056527      0.44912196     20.518703      22.476256      4.7626991    
     26500   1.0060393      0.45837695     20.516816      22.484205      4.7286444    
     27000   0.99521588     0.45534541     20.525006      22.473128      4.8117473    
     27500   1.0001135      0.45073944     20.522533      22.473396      4.8228578    
     28000   1.0022397      0.44918975     20.51943       22.471933      4.859749     
     28500   0.99914523     0.45714105     20.510393      22.466205      4.8467079    
     29000   0.99459209     0.45325744     20.512433      22.457532      4.8477602    
     29500   0.99894472     0.45379127     20.512386      22.464547      4.8204231    
     30000   0.99896209     0.45332932     20.514608      22.466334      4.6900641    
     30500   1.0000492      0.45118671     20.509232      22.460446      4.7605664    
     31000   0.99460837     0.44986042     20.516104      22.457831      4.7587362    
     31500   1.00055        0.45328755     20.51493       22.468995      4.8402546    
     32000   1.0031208      0.45662131     20.514791      22.476047      4.7632739    
     32500   0.9955768      0.46357043     20.51525       22.472139      4.8714064    
     33000   1.0030968      0.45419404     20.514985      22.473777      4.7641039    
     33500   1.0023769      0.45922808     20.515903      22.478649      4.8245915    
     34000   1.0035881      0.45247898     20.517411      22.475225      4.7243272    
     34500   0.99768486     0.45281592     20.509655      22.458952      4.7424184    
     35000   0.99500712     0.45537715     20.511652      22.459493      4.8479208    
     35500   0.99695219     0.45178976     20.518841      22.466012      4.8191183    
     36000   0.99553996     0.45569165     20.514995      22.46395       4.8928027    
     36500   0.99576726     0.45575212     20.514392      22.463748      4.704792     
     37000   0.9973596      0.45483048     20.509536      22.460359      4.7806565    
     37500   1.0012702      0.44908137     20.513174      22.464114      4.825147     
     38000   0.99579575     0.45514023     20.517106      22.465893      4.7905526    
     38500   1.0038311      0.45270395     20.517654      22.476057      4.8719472    
     39000   0.99676998     0.4582872      20.51681       22.470205      4.920242     
     39500   0.99742477     0.45871391     20.515383      22.470188      4.7632031    
     40000   1.0019046      0.45340479     20.510914      22.467129      4.8121032    
     40500   0.99492067     0.46068132     20.517161      22.470177      4.7569225    
     41000   0.99512585     0.45444083     20.519529      22.466612      4.8237858    
     41500   0.99804934     0.45640563     20.516827      22.470259      4.8409627    
     42000   0.99899019     0.4564404      20.516987      22.471866      4.7845688    
     42500   1.0019451      0.45342537     20.517272      22.473568      4.7928531    
     43000   1.0041654      0.45477674     20.517888      22.478865      4.820555     
     43500   1.0089146      0.45567276     20.523165      22.492162      4.7538785    
     44000   1.0103432      0.45446101     20.519408      22.489336      4.8031406    
     44500   1.0113326      0.4624632      20.513509      22.492923      4.8645651    
     45000   0.99871209     0.45292552     20.527502      22.478449      4.761052     
     45500   1.0128959      0.45411709     20.521654      22.495067      4.79167      
     46000   1.0004112      0.4601819      20.5154        22.476152      4.7967698    
     46500   0.99991466     0.45341217     20.514305      22.467542      4.7525302    
     47000   0.99920482     0.45288627     20.511848      22.463495      4.7633703    
     47500   0.99654706     0.44966849     20.514885      22.459328      4.7609084    
     48000   0.99677973     0.45313045     20.516562      22.464815      4.8128903    
     48500   0.99940555     0.45492092     20.514494      22.468476      4.7476314    
     49000   1.000508       0.45512879     20.516777      22.472621      4.8453685    
     49500   1.0042333      0.45299556     20.509626      22.468925      4.7985638    
     50000   0.99504265     0.45553341     20.523463      22.471514      4.6908191    
Loop time of 58.9087 on 8 procs for 50000 steps with 32000 atoms

Performance: 880005.424 tau/day, 848.771 timesteps/s, 27.161 Matom-step/s
97.5% CPU use with 1 MPI tasks x 8 OpenMP threads

MPI task timing breakdown:
Section |  min time  |  avg time  |  max time  |%varavg| %total
---------------------------------------------------------------
Pair    | 0.85174    | 0.85174    | 0.85174    |   0.0 |  1.45
Bond    | 2.9533     | 2.9533     | 2.9533     |   0.0 |  5.01
Neigh   | 3.8392     | 3.8392     | 3.8392     |   0.0 |  6.52
Comm    | 22.634     | 22.634     | 22.634     |   0.0 | 38.42
Output  | 0.004051   | 0.004051   | 0.004051   |   0.0 |  0.01
Modify  | 25.93      | 25.93      | 25.93      |   0.0 | 44.02
Other   |            | 2.696      |            |       |  4.58

Nlocal:          32000 ave       32000 max       32000 min
Histogram: 1 0 0 0 0 0 0 0 0 0
Nghost:           9511 ave        9511 max        9511 min
Histogram: 1 0 0 0 0 0 0 0 0 0
Neighs:         155835 ave      155835 max      155835 min
Histogram: 1 0 0 0 0 0 0 0 0 0

Total # of neighbors = 155835
Ave neighs/atom = 4.8698438
Ave special neighs/atom = 1.98
Neighbor list builds = 12551
Dangerous builds = 0
Total wall time: 0:01:44
