LAMMPS (30 Mar 2026)
KOKKOS mode with Kokkos version 5.1.99 is enabled
  using double precision
  using view layout = legacy
  will use up to 1 GPU(s) per node
  using 8 OpenMP thread(s) per MPI task
package kokkos
package kokkos gpu/aware on newton on neigh half
# FENE beadspring benchmark

units           lj
atom_style      bond
special_bonds   fene

read_data       input/data.chain
Reading data file ...
  orthogonal box = (-16.796 -16.796 -16.796) to (16.796 16.796 16.796)
  1 by 1 by 1 MPI processor grid
  reading atoms ...
  32000 atoms
  reading velocities ...
  32000 velocities
  scanning bonds ...
  1 = max bonds/atom
  orthogonal box = (-16.796 -16.796 -16.796) to (16.796 16.796 16.796)
  1 by 1 by 1 MPI processor grid
  reading bonds ...
  31680 bonds
Finding 1-2 1-3 1-4 neighbors ...
  special bond factors lj:    0        1        1       
  special bond factors coul:  0        1        1       
     2 = max # of 1-2 neighbors
     2 = max # of special neighbors
  special bonds CPU = 0.100 seconds
  read_data CPU = 2.499 seconds

neighbor        0.4 bin
neigh_modify    every 1 delay 1

bond_style      fene
bond_coeff      1 30.0 1.5 1.0 1.0

pair_style      lj/cut 1.12
pair_modify     shift yes
pair_coeff      1 1 1.0 1.0 1.12

fix             1 all nve
fix             2 all langevin 1.0 1.0 10.0 904297

fix             3 all imd 8887 version 3 unwrap off nowait off trate 50 time off box off coordinates on velocities on forces on
Using fix imd with asynchronous I/O.

thermo          500
timestep        0.012

run             50000

CITE-CITE-CITE-CITE-CITE-CITE-CITE-CITE-CITE-CITE-CITE-CITE-CITE

Your simulation uses code contributions which should be cited:

- KOKKOS package: https://doi.org/10.1145/3731599.3767498

@inproceedings{Johansson25,
 author = {A. Johansson and E. Weinberg and C. Trott and M. McCarthy and S. Moore},
 title = {{LAMMPS-KOKKOS}: {P}erformance Portable Molecular Dynamics Across Exascale Architectures},
 year = 2025,
 booktitle = {Proceedings of the SC '25 Workshops of the International Conference for High Performance Computing,
  Networking, Storage and Analysis},
 pages = {1217–1232},
}

CITE-CITE-CITE-CITE-CITE-CITE-CITE-CITE-CITE-CITE-CITE-CITE-CITE

Generated 0 of 0 mixed pair_coeff terms from geometric mixing rule
WARNING: Communication cutoff 1.52 is shorter than a bond length based estimate of 1.855. This may lead to errors. (src/comm.cpp:694)
Neighbor list info ...
  update: every = 1 steps, delay = 1 steps, check = yes
  max neighbors/atom: 2000, page size: 100000
  master list distance cutoff = 1.52
  ghost atom cutoff = 1.52
  binsize = 1.52, bins = 23 23 23
  1 neighbor lists, perpetual/occasional/extra = 1 0 0
  (1) pair lj/cut/kk, perpetual
      attributes: half, newton on, kokkos_device
      pair build: half/bin/newton/kk/device
      stencil: half/bin/3d
      bin: kk/device
WARNING: Communication cutoff 1.52 is shorter than a bond length based estimate of 1.855. This may lead to errors. (src/comm.cpp:694)
Per MPI rank memory allocation (min/avg/max) = 29.98 | 29.98 | 29.98 Mbytes
   Step          Temp          E_pair         E_mol          TotEng         Press     
         0   0.97029772     0.44484087     20.494523      22.394765      4.6721833    
       500   0.98387755     0.4445953      20.499987      22.420352      4.7296389    
      1000   0.99588611     0.444336       20.504052      22.44217       4.7651013    
      1500   1.0030124      0.45831493     20.509837      22.472623      4.7019943    
      2000   1.0055186      0.45439782     20.517386      22.480015      4.8180069    
      2500   0.99435064     0.45527066     20.522273      22.469023      4.7784889    
      3000   1.000939       0.45619023     20.522357      22.479909      4.7604143    
      3500   0.99964503     0.45345052     20.521822      22.474693      4.7383004    
      4000   1.0039125      0.45223909     20.516935      22.474996      4.7434095    
      4500   1.000272       0.45110347     20.518077      22.469542      4.803976     
      5000   1.00285        0.45446521     20.509911      22.468604      4.7449939    
      5500   1.0057087      0.44800764     20.518209      22.474732      4.7350671    
      6000   1.0053952      0.45047918     20.518476      22.477         4.6980202    
      6500   0.99926855     0.45496565     20.516681      22.470503      4.8311655    
      7000   0.99378803     0.45383174     20.516092      22.460559      4.7269857    
      7500   1.0029452      0.45385126     20.514489      22.472711      4.8734912    
      8000   0.99847713     0.45421604     20.518465      22.47035       4.835125     
      8500   1.0085871      0.45606406     20.505561      22.474459      4.8714787    
      9000   1.0035075      0.44424509     20.519543      22.469002      4.7347813    
      9500   0.99669276     0.45276644     20.523656      22.471415      4.7950857    
     10000   0.99747351     0.45038426     20.520136      22.466684      4.7487536    
     10500   0.99637982     0.45314165     20.515147      22.462812      4.7365272    
     11000   1.0113126      0.44789357     20.518706      22.483521      4.772892     
     11500   1.0034456      0.45145432     20.517819      22.474394      4.8428508    
     12000   1.0080871      0.45141707     20.50971       22.473211      4.831564     
     12500   1.0055659      0.45646391     20.510688      22.475453      4.7677992    
     13000   1.0022201      0.4579976      20.517379      22.47866       4.8609203    
     13500   1.0027448      0.45630998     20.513337      22.473717      4.7977552    
     14000   1.0054645      0.45965083     20.515611      22.483412      4.8161181    
     14500   1.0107203      0.46497685     20.520719      22.501729      4.9391227    
     15000   1.0054567      0.4544812      20.515967      22.478586      4.8085652    
     15500   0.99846166     0.45416677     20.522771      22.474583      4.7447899    
     16000   1.0016528      0.45613495     20.515477      22.474045      4.8241415    
     16500   0.9991814      0.45394823     20.519402      22.472076      4.7001943    
     17000   1.008224       0.44458342     20.516392      22.473265      4.7951821    
     17500   0.99665478     0.45250758     20.519669      22.467112      4.8070798    
     18000   0.99686861     0.4624591      20.510022      22.467737      4.825676     
     18500   1.0005441      0.45593124     20.509383      22.466083      4.8705995    
     19000   0.99557947     0.45143323     20.511219      22.455975      4.7159287    
     19500   0.99897731     0.45109429     20.517394      22.466908      4.725924     
     20000   1.0002893      0.45033033     20.519082      22.4698        4.7401959    
     20500   0.99517        0.4513438      20.520692      22.464744      4.8450413    
     21000   0.99692941     0.45941474     20.515612      22.470374      4.7841504    
     21500   1.0027881      0.45410938     20.515115      22.47336       4.7590507    
     22000   0.99572542     0.44965608     20.519085      22.462282      4.8383664    
     22500   0.99913962     0.44838902     20.51488       22.461931      4.752843     
     23000   0.99338548     0.45464912     20.514174      22.458855      4.8196665    
     23500   1.0050095      0.45872841     20.513315      22.47951       4.8545612    
     24000   1.0001931      0.45632095     20.515048      22.471611      4.8149384    
     24500   1.0035891      0.45014501     20.519566      22.475048      4.7934488    
     25000   1.0044828      0.45667601     20.518754      22.482107      4.8534536    
     25500   1.0136025      0.45489905     20.517337      22.492592      4.7568833    
     26000   1.0072646      0.45537264     20.513486      22.479709      4.8405965    
     26500   0.99119883     0.44866987     20.516038      22.451459      4.7570346    
     27000   0.99310429     0.45164001     20.51369       22.45494       4.7091881    
     27500   1.0002304      0.45787421     20.512255      22.470428      4.8994621    
     28000   0.9998404      0.45212017     20.517444      22.469278      4.8087256    
     28500   1.005137       0.45819352     20.509399      22.475251      4.8739031    
     29000   1.0061676      0.45506276     20.519182      22.483449      4.8462508    
     29500   1.0004141      0.45576588     20.509788      22.466128      4.8356735    
     30000   0.99192726     0.45113894     20.517064      22.456047      4.8227149    
     30500   1.0059431      0.44980546     20.512114      22.470787      4.8121979    
     31000   1.0109684      0.45902123     20.511294      22.486721      4.8714751    
     31500   0.99808793     0.45490911     20.511693      22.463688      4.8587171    
     32000   1.0026709      0.45333217     20.51752       22.474812      4.7765142    
     32500   1.0100179      0.44907178     20.519184      22.483235      4.8189145    
     33000   1.0014109      0.4569077      20.510035      22.469012      4.8182946    
     33500   1.002814       0.44861334     20.516107      22.468894      4.7272704    
     34000   1.0012836      0.45940957     20.513602      22.47489       4.8245036    
     34500   0.99560855     0.45812574     20.522409      22.473901      4.8813327    
     35000   1.0032593      0.45824343     20.514502      22.477588      4.795405     
     35500   0.99602181     0.45193586     20.515882      22.461804      4.6518447    
     36000   0.99486835     0.45483401     20.511247      22.458337      4.8128488    
     36500   0.99648155     0.45585162     20.511939      22.462467      4.7945737    
     37000   1.0061291      0.459032       20.510783      22.478962      4.8102918    
     37500   1.0042692      0.45939925     20.520558      22.486314      4.8387489    
     38000   1.0058932      0.44472818     20.516726      22.470247      4.7477997    
     38500   1.0040572      0.45300169     20.510038      22.469078      4.7143165    
     39000   1.0082506      0.4513515      20.517549      22.481229      4.7760393    
     39500   1.0081654      0.45688048     20.524605      22.493686      4.792138     
     40000   1.00721        0.46191506     20.522122      22.494804      4.9192261    
     40500   1.0121463      0.45517414     20.512659      22.486005      4.6740365    
     41000   0.99927666     0.45875513     20.511078      22.468702      4.7628341    
     41500   1.000886       0.46029891     20.523478      22.485059      4.8851617    
     42000   1.0034143      0.45231282     20.522636      22.480023      4.8491656    
     42500   0.99995382     0.44960172     20.519199      22.468685      4.7483973    
     43000   1.0030962      0.4563825      20.522818      22.483797      4.7757839    
     43500   1.0061956      0.45561324     20.511908      22.476767      4.8085007    
     44000   0.99972378     0.45098528     20.514115      22.464639      4.8115204    
     44500   0.99650766     0.45884282     20.510506      22.464064      4.9186568    
     45000   0.99461222     0.45561538     20.514104      22.461591      4.8211515    
     45500   1.0014342      0.44896072     20.513026      22.464091      4.8509513    
     46000   1.0034483      0.45015945     20.521004      22.476288      4.8307581    
     46500   1.0096525      0.45673215     20.517032      22.488195      4.8259333    
     47000   1.0065265      0.45700323     20.520412      22.487158      4.7650583    
     47500   1.0010717      0.45729049     20.516415      22.475266      4.7440573    
     48000   0.9985429      0.45425834     20.522105      22.474131      4.7481653    
     48500   1.0041867      0.45177527     20.519192      22.4772        4.7811755    
     49000   1.0003575      0.44718693     20.511882      22.459558      4.7219358    
     49500   0.99974523     0.45150962     20.519143      22.470224      4.7657995    
     50000   0.99755185     0.45386822     20.514367      22.464517      4.8736004    
Loop time of 38.4194 on 8 procs for 50000 steps with 32000 atoms

Performance: 1349317.405 tau/day, 1301.425 timesteps/s, 41.646 Matom-step/s
98.1% CPU use with 1 MPI tasks x 8 OpenMP threads

MPI task timing breakdown:
Section |  min time  |  avg time  |  max time  |%varavg| %total
---------------------------------------------------------------
Pair    | 0.81319    | 0.81319    | 0.81319    |   0.0 |  2.12
Bond    | 2.8442     | 2.8442     | 2.8442     |   0.0 |  7.40
Neigh   | 3.6697     | 3.6697     | 3.6697     |   0.0 |  9.55
Comm    | 23.26      | 23.26      | 23.26      |   0.0 | 60.54
Output  | 0.0070599  | 0.0070599  | 0.0070599  |   0.0 |  0.02
Modify  | 5.1872     | 5.1872     | 5.1872     |   0.0 | 13.50
Other   |            | 2.638      |            |       |  6.87

Nlocal:          32000 ave       32000 max       32000 min
Histogram: 1 0 0 0 0 0 0 0 0 0
Nghost:           9550 ave        9550 max        9550 min
Histogram: 1 0 0 0 0 0 0 0 0 0
Neighs:         155786 ave      155786 max      155786 min
Histogram: 1 0 0 0 0 0 0 0 0 0

Total # of neighbors = 155786
Ave neighs/atom = 4.8683125
Ave special neighs/atom = 1.98
Neighbor list builds = 12548
Dangerous builds = 0
Total wall time: 0:01:23
