LAMMPS (30 Mar 2026)
KOKKOS mode with Kokkos version 5.1.99 is enabled
  using double precision
  using view layout = legacy
  will use up to 1 GPU(s) per node
  using 8 OpenMP thread(s) per MPI task
package kokkos
package kokkos gpu/aware on newton on neigh half
# FENE beadspring benchmark

units           lj
atom_style      bond
special_bonds   fene

read_data       input/data.chain
Reading data file ...
  orthogonal box = (-16.796 -16.796 -16.796) to (16.796 16.796 16.796)
  1 by 1 by 1 MPI processor grid
  reading atoms ...
  32000 atoms
  reading velocities ...
  32000 velocities
  scanning bonds ...
  1 = max bonds/atom
  orthogonal box = (-16.796 -16.796 -16.796) to (16.796 16.796 16.796)
  1 by 1 by 1 MPI processor grid
  reading bonds ...
  31680 bonds
Finding 1-2 1-3 1-4 neighbors ...
  special bond factors lj:    0        1        1       
  special bond factors coul:  0        1        1       
     2 = max # of 1-2 neighbors
     2 = max # of special neighbors
  special bonds CPU = 0.101 seconds
  read_data CPU = 2.481 seconds

neighbor        0.4 bin
neigh_modify    every 1 delay 1

bond_style      fene
bond_coeff      1 30.0 1.5 1.0 1.0

pair_style      lj/cut 1.12
pair_modify     shift yes
pair_coeff      1 1 1.0 1.0 1.12

fix             1 all nve
fix             2 all langevin 1.0 1.0 10.0 904297

fix             3 all imd 8887 version 3 unwrap off nowait off trate 500 time off box off coordinates on velocities on forces on
Using fix imd with asynchronous I/O.

thermo          500
timestep        0.012

run             50000

CITE-CITE-CITE-CITE-CITE-CITE-CITE-CITE-CITE-CITE-CITE-CITE-CITE

Your simulation uses code contributions which should be cited:

- KOKKOS package: https://doi.org/10.1145/3731599.3767498

@inproceedings{Johansson25,
 author = {A. Johansson and E. Weinberg and C. Trott and M. McCarthy and S. Moore},
 title = {{LAMMPS-KOKKOS}: {P}erformance Portable Molecular Dynamics Across Exascale Architectures},
 year = 2025,
 booktitle = {Proceedings of the SC '25 Workshops of the International Conference for High Performance Computing,
  Networking, Storage and Analysis},
 pages = {1217–1232},
}

CITE-CITE-CITE-CITE-CITE-CITE-CITE-CITE-CITE-CITE-CITE-CITE-CITE

Generated 0 of 0 mixed pair_coeff terms from geometric mixing rule
WARNING: Communication cutoff 1.52 is shorter than a bond length based estimate of 1.855. This may lead to errors. (src/comm.cpp:694)
Neighbor list info ...
  update: every = 1 steps, delay = 1 steps, check = yes
  max neighbors/atom: 2000, page size: 100000
  master list distance cutoff = 1.52
  ghost atom cutoff = 1.52
  binsize = 1.52, bins = 23 23 23
  1 neighbor lists, perpetual/occasional/extra = 1 0 0
  (1) pair lj/cut/kk, perpetual
      attributes: half, newton on, kokkos_device
      pair build: half/bin/newton/kk/device
      stencil: half/bin/3d
      bin: kk/device
WARNING: Communication cutoff 1.52 is shorter than a bond length based estimate of 1.855. This may lead to errors. (src/comm.cpp:694)
Per MPI rank memory allocation (min/avg/max) = 29.98 | 29.98 | 29.98 Mbytes
   Step          Temp          E_pair         E_mol          TotEng         Press     
         0   0.97029772     0.44484087     20.494523      22.394765      4.6721833    
       500   0.98035904     0.44923844     20.507404      22.427135      4.6506997    
      1000   0.98176249     0.44963272     20.517496      22.439726      4.7660164    
      1500   0.99596614     0.44587528     20.511589      22.451367      4.6813654    
      2000   1.0043968      0.45230139     20.519654      22.478504      4.767035     
      2500   1.0107208      0.45299762     20.516268      22.485299      4.7338213    
      3000   1.0026439      0.45092876     20.518577      22.473425      4.8735184    
      3500   0.99280283     0.45196626     20.512953      22.454077      4.8204203    
      4000   0.9926671      0.45295824     20.51415       22.456062      4.8040836    
      4500   0.99945284     0.45011058     20.514837      22.46408       4.8265364    
      5000   1.0033905      0.45042999     20.51727       22.472739      4.7484453    
      5500   0.99724681     0.45842605     20.518379      22.472629      4.8948495    
      6000   0.99821994     0.44748467     20.516696      22.461464      4.796725     
      6500   1.0042201      0.45140084     20.511694      22.469378      4.7645439    
      7000   0.99375732     0.454767       20.510888      22.456244      4.7125447    
      7500   0.99986902     0.45689914     20.511325      22.467981      4.8391845    
      8000   0.99513385     0.45216481     20.518583      22.463402      4.7605716    
      8500   0.99357957     0.45874182     20.514624      22.463689      4.7801425    
      9000   1.000756       0.45062969     20.513073      22.46479       4.6965099    
      9500   1.0002614      0.44964663     20.516924      22.466916      4.8645077    
     10000   0.99685224     0.4600093      20.507584      22.462825      4.8342991    
     10500   1.0015236      0.45602852     20.516968      22.475235      4.8509542    
     11000   0.99656448     0.45605772     20.519381      22.470239      4.7686565    
     11500   1.0069869      0.44936674     20.510514      22.470314      4.7309388    
     12000   1.0029771      0.45656893     20.51862       22.479608      4.8304488    
     12500   1.0040319      0.4576116      20.518667      22.482279      4.8099273    
     13000   1.0062942      0.45392828     20.519062      22.482384      4.8532143    
     13500   1.002178       0.45410503     20.517119      22.474444      4.8341469    
     14000   1.0070483      0.45515629     20.515099      22.480781      4.7476115    
     14500   1.0002973      0.45241311     20.515982      22.468794      4.8263224    
     15000   1.0044935      0.45730262     20.511964      22.475959      4.8169317    
     15500   1.0058252      0.45228273     20.52379       22.484764      4.7806311    
     16000   1.0110273      0.44847602     20.514438      22.479408      4.817148     
     16500   1.0035981      0.46197255     20.516288      22.48361       4.8137236    
     17000   1.0101797      0.45290713     20.512219      22.480348      4.7510943    
     17500   1.006807       0.45400844     20.519477      22.483649      4.76421      
     18000   0.99611053     0.44872566     20.511866      22.45471       4.800619     
     18500   0.99781108     0.45353636     20.511254      22.46146       4.8460885    
     19000   0.99648354     0.45208848     20.515436      22.462203      4.7672896    
     19500   1.0007617      0.4529942      20.512363      22.466453      4.8091951    
     20000   0.99409006     0.45301233     20.52274       22.466841      4.8415204    
     20500   1.0031241      0.45064657     20.513852      22.469138      4.7627022    
     21000   1.0030241      0.45464422     20.516092      22.475225      4.8003651    
     21500   0.99782333     0.45388937     20.510239      22.460817      4.7614398    
     22000   0.99988085     0.45598023     20.513741      22.469496      4.8745884    
     22500   1.0018112      0.45258622     20.510632      22.465889      4.7977529    
     23000   1.0003117      0.45402851     20.513326      22.467775      4.8032149    
     23500   0.99829022     0.45796393     20.516146      22.471499      4.8443132    
     24000   1.0012229      0.44485566     20.511875      22.458518      4.7672516    
     24500   1.0007072      0.45236978     20.518456      22.471839      4.7977876    
     25000   0.99211884     0.44912039     20.524465      22.461717      4.8459886    
     25500   0.99922161     0.45499878     20.510169      22.463954      4.7288117    
     26000   0.99737083     0.44930394     20.517656      22.462969      4.7399627    
     26500   1.0047052      0.45343044     20.512302      22.472743      4.8056593    
     27000   1.0013922      0.4579892      20.514787      22.474817      4.806874     
     27500   0.99851783     0.45488679     20.512641      22.465258      4.886537     
     28000   1.0079927      0.4551123      20.501426      22.46848       4.7232488    
     28500   1.0022963      0.45249974     20.518289      22.474186      4.7909457    
     29000   0.99155819     0.45342924     20.521884      22.462605      4.7408026    
     29500   0.99113629     0.45195019     20.5114        22.450008      4.725988     
     30000   0.99520742     0.45642766     20.508786      22.457978      4.7857925    
     30500   0.99673947     0.45391263     20.511462      22.460438      4.8372886    
     31000   1.0030827      0.45193518     20.506769      22.463282      4.7562522    
     31500   1.0034334      0.4532714      20.51601       22.474385      4.7629584    
     32000   1.0029396      0.45640565     20.517787      22.478555      4.7975989    
     32500   1.0036332      0.44994474     20.510454      22.465801      4.6138488    
     33000   1.004813       0.45957391     20.510867      22.477613      4.7679434    
     33500   1.00199        0.45555936     20.511052      22.469549      4.8193918    
     34000   1.0069814      0.45306074     20.520633      22.484119      4.7713288    
     34500   0.99678384     0.45524062     20.521842      22.472212      4.7884578    
     35000   0.99823129     0.45715214     20.515192      22.469644      4.7453994    
     35500   1.0050239      0.46003121     20.509614      22.477134      4.8075111    
     36000   1.0020809      0.4502375      20.528794      22.482106      4.7176217    
     36500   1.0040284      0.45773844     20.509128      22.472862      4.7316897    
     37000   1.0035256      0.44935795     20.520457      22.475056      4.7870969    
     37500   1.0058284      0.45034497     20.519964      22.479004      4.7848377    
     38000   1.0022797      0.46322654     20.509967      22.476566      4.8752987    
     38500   1.0037309      0.45571062     20.515721      22.47698       4.7877616    
     39000   1.0048299      0.45165129     20.523349      22.482198      4.8196039    
     39500   1.0054933      0.45988833     20.514449      22.48253       4.7983542    
     40000   0.99628398     0.44839194     20.528252      22.471024      4.8237652    
     40500   1.0053011      0.45315345     20.514936      22.475994      4.78265      
     41000   1.0023069      0.45676845     20.513253      22.473435      4.7725493    
     41500   1.0103101      0.45412828     20.514174      22.48372       4.7705411    
     42000   0.99822443     0.45993568     20.514152      22.471377      4.8228525    
     42500   1.0050477      0.44505475     20.517525      22.470104      4.7668294    
     43000   0.99485692     0.45619717     20.514544      22.46298       4.8445492    
     43500   1.0012886      0.4512049      20.516032      22.469123      4.685628     
     44000   0.99994405     0.449091       20.515651      22.464611      4.8095487    
     44500   1.0016046      0.45153442     20.510896      22.46479       4.7837462    
     45000   1.008879       0.45358365     20.521291      22.488146      4.7747922    
     45500   1.0027497      0.45455992     20.521495      22.480132      4.8233346    
     46000   1.0018794      0.45505469     20.521595      22.479422      4.7426787    
     46500   1.0000246      0.45944532     20.515712      22.475148      4.8842775    
     47000   1.0033148      0.45942394     20.515324      22.479673      4.8041733    
     47500   0.99721425     0.45702314     20.512911      22.465708      4.8220892    
     48000   1.0012841      0.45581249     20.516985      22.474677      4.7832155    
     48500   1.00173        0.45995597     20.512584      22.475088      4.7941717    
     49000   1.0008115      0.45905801     20.514996      22.475225      4.8594335    
     49500   0.99744001     0.45691021     20.516471      22.469494      4.8038003    
     50000   0.99853962     0.45184007     20.516186      22.465789      4.6828876    
Loop time of 34.0636 on 8 procs for 50000 steps with 32000 atoms

Performance: 1521859.004 tau/day, 1467.842 timesteps/s, 46.971 Matom-step/s
98.6% CPU use with 1 MPI tasks x 8 OpenMP threads

MPI task timing breakdown:
Section |  min time  |  avg time  |  max time  |%varavg| %total
---------------------------------------------------------------
Pair    | 0.79444    | 0.79444    | 0.79444    |   0.0 |  2.33
Bond    | 2.8235     | 2.8235     | 2.8235     |   0.0 |  8.29
Neigh   | 3.6262     | 3.6262     | 3.6262     |   0.0 | 10.65
Comm    | 22.27      | 22.27      | 22.27      |   0.0 | 65.38
Output  | 0.0089573  | 0.0089573  | 0.0089573  |   0.0 |  0.03
Modify  | 1.9987     | 1.9987     | 1.9987     |   0.0 |  5.87
Other   |            | 2.542      |            |       |  7.46

Nlocal:          32000 ave       32000 max       32000 min
Histogram: 1 0 0 0 0 0 0 0 0 0
Nghost:           9515 ave        9515 max        9515 min
Histogram: 1 0 0 0 0 0 0 0 0 0
Neighs:         155841 ave      155841 max      155841 min
Histogram: 1 0 0 0 0 0 0 0 0 0

Total # of neighbors = 155841
Ave neighs/atom = 4.8700313
Ave special neighs/atom = 1.98
Neighbor list builds = 12553
Dangerous builds = 0
Total wall time: 0:01:19
