LAMMPS (30 Mar 2026)
KOKKOS mode with Kokkos version 5.1.99 is enabled
  using double precision
  using view layout = legacy
  will use up to 1 GPU(s) per node
  using 8 OpenMP thread(s) per MPI task
package kokkos
package kokkos gpu/aware on newton on neigh half
# FENE beadspring benchmark

units           lj
atom_style      bond
special_bonds   fene

read_data       input/data.chain
Reading data file ...
  orthogonal box = (-16.796 -16.796 -16.796) to (16.796 16.796 16.796)
  1 by 1 by 1 MPI processor grid
  reading atoms ...
  32000 atoms
  reading velocities ...
  32000 velocities
  scanning bonds ...
  1 = max bonds/atom
  orthogonal box = (-16.796 -16.796 -16.796) to (16.796 16.796 16.796)
  1 by 1 by 1 MPI processor grid
  reading bonds ...
  31680 bonds
Finding 1-2 1-3 1-4 neighbors ...
  special bond factors lj:    0        1        1       
  special bond factors coul:  0        1        1       
     2 = max # of 1-2 neighbors
     2 = max # of special neighbors
  special bonds CPU = 0.101 seconds
  read_data CPU = 2.465 seconds

neighbor        0.4 bin
neigh_modify    every 1 delay 1

bond_style      fene
bond_coeff      1 30.0 1.5 1.0 1.0

pair_style      lj/cut 1.12
pair_modify     shift yes
pair_coeff      1 1 1.0 1.0 1.12

fix             1 all nve
fix             2 all langevin 1.0 1.0 10.0 904297

fix             3 all imd 8887 version 3 unwrap off nowait off trate 5 time off box off coordinates on velocities on forces on
Using fix imd with asynchronous I/O.

thermo          500
timestep        0.012

run             50000

CITE-CITE-CITE-CITE-CITE-CITE-CITE-CITE-CITE-CITE-CITE-CITE-CITE

Your simulation uses code contributions which should be cited:

- KOKKOS package: https://doi.org/10.1145/3731599.3767498

@inproceedings{Johansson25,
 author = {A. Johansson and E. Weinberg and C. Trott and M. McCarthy and S. Moore},
 title = {{LAMMPS-KOKKOS}: {P}erformance Portable Molecular Dynamics Across Exascale Architectures},
 year = 2025,
 booktitle = {Proceedings of the SC '25 Workshops of the International Conference for High Performance Computing,
  Networking, Storage and Analysis},
 pages = {1217–1232},
}

CITE-CITE-CITE-CITE-CITE-CITE-CITE-CITE-CITE-CITE-CITE-CITE-CITE

Generated 0 of 0 mixed pair_coeff terms from geometric mixing rule
WARNING: Communication cutoff 1.52 is shorter than a bond length based estimate of 1.855. This may lead to errors. (src/comm.cpp:694)
Neighbor list info ...
  update: every = 1 steps, delay = 1 steps, check = yes
  max neighbors/atom: 2000, page size: 100000
  master list distance cutoff = 1.52
  ghost atom cutoff = 1.52
  binsize = 1.52, bins = 23 23 23
  1 neighbor lists, perpetual/occasional/extra = 1 0 0
  (1) pair lj/cut/kk, perpetual
      attributes: half, newton on, kokkos_device
      pair build: half/bin/newton/kk/device
      stencil: half/bin/3d
      bin: kk/device
WARNING: Communication cutoff 1.52 is shorter than a bond length based estimate of 1.855. This may lead to errors. (src/comm.cpp:694)
Per MPI rank memory allocation (min/avg/max) = 29.98 | 29.98 | 29.98 Mbytes
   Step          Temp          E_pair         E_mol          TotEng         Press     
         0   0.97029772     0.44484087     20.494523      22.394765      4.6721833    
       500   0.98782123     0.44122001     20.509347      22.432253      4.7238258    
      1000   0.99189404     0.45545987     20.514233      22.457487      4.8206405    
      1500   0.99966535     0.45168005     20.509553      22.460684      4.7605311    
      2000   0.99161557     0.44938441     20.520723      22.457484      4.7994155    
      2500   1.0003272      0.4511679      20.51574       22.467352      4.7575006    
      3000   0.99795021     0.45199819     20.506637      22.455513      4.8108162    
      3500   0.99560081     0.44867995     20.51502       22.457055      4.7865897    
      4000   0.99376371     0.45186485     20.514266      22.45673       4.7492634    
      4500   0.999826       0.45547171     20.50659       22.461754      4.7676259    
      5000   1.0045342      0.4531342      20.520465      22.480353      4.7726296    
      5500   1.0096592      0.44909491     20.514211      22.477747      4.8103196    
      6000   1.007557       0.45984317     20.513104      22.484236      4.8485093    
      6500   0.99687297     0.45519914     20.522075      22.472536      4.7867966    
      7000   0.99795383     0.45054438     20.516798      22.464226      4.7915191    
      7500   0.99816482     0.45170481     20.5166        22.465505      4.860277     
      8000   1.0008173      0.45338858     20.512553      22.467121      4.7575247    
      8500   1.0045059      0.45250001     20.509638      22.46885       4.7292451    
      9000   1.0088877      0.44774776     20.509399      22.470431      4.7364418    
      9500   1.0060361      0.44381917     20.514167      22.466993      4.6843709    
     10000   0.99789306     0.45196783     20.509045      22.457806      4.7541221    
     10500   0.99570785     0.45468204     20.510331      22.458528      4.8541121    
     11000   0.99397867     0.4473754      20.517401      22.455698      4.7159522    
     11500   0.99367965     0.45596498     20.512561      22.458998      4.782517     
     12000   1.0020414      0.44899471     20.50712       22.45913       4.7900523    
     12500   0.99862298     0.45451433     20.51884       22.471242      4.8003956    
     13000   1.002859       0.44861123     20.521961      22.474814      4.7702821    
     13500   0.99763783     0.45292606     20.522599      22.471935      4.8075244    
     14000   0.99833113     0.45133246     20.517978      22.466761      4.7427712    
     14500   1.0011898      0.44962422     20.521527      22.472889      4.7540626    
     15000   0.99738692     0.45533152     20.514024      22.465389      4.7869065    
     15500   1.0049388      0.45951391     20.520771      22.487646      4.7964664    
     16000   1.0061714      0.45246659     20.51631       22.477987      4.8114213    
     16500   0.99975854     0.45142445     20.516834      22.467849      4.7382236    
     17000   1.0025899      0.45247634     20.521097      22.477411      4.7775443    
     17500   1.002735       0.45292035     20.520351      22.477327      4.8318356    
     18000   1.0020765      0.44886011     20.520167      22.472095      4.8416402    
     18500   0.99980049     0.45942131     20.513621      22.472696      4.8133458    
     19000   0.99940121     0.45152002     20.51721       22.467785      4.7691036    
     19500   0.9999665      0.44631346     20.516275      22.462491      4.7439093    
     20000   1.0040512      0.45654369     20.507493      22.470066      4.886945     
     20500   1.0055558      0.45761704     20.51128       22.477184      4.7892132    
     21000   1.0012243      0.45040389     20.51563       22.467823      4.7279399    
     21500   0.99928587     0.45758074     20.520057      22.476519      4.8027894    
     22000   0.99917133     0.45878162     20.521728      22.479219      4.8510149    
     22500   1.0044002      0.45258198     20.520317      22.479452      4.7895335    
     23000   1.0023653      0.45558085     20.515826      22.474908      4.8441853    
     23500   1.0030907      0.44906283     20.520899      22.474551      4.8219769    
     24000   0.99675487     0.45567239     20.513779      22.464537      4.806415     
     24500   1.0095169      0.45842819     20.514606      22.487262      4.8409316    
     25000   1.0012685      0.4503349      20.510787      22.462978      4.7722439    
     25500   1.0014063      0.45403766     20.523736      22.479836      4.7585359    
     26000   1.0010601      0.45414551     20.516242      22.47193       4.7404923    
     26500   1.000841       0.45187089     20.507357      22.460442      4.7796956    
     27000   1.0001361      0.4496853      20.515989      22.465831      4.7250746    
     27500   1.0005567      0.45436745     20.521116      22.476272      4.7985758    
     28000   1.0018094      0.44939722     20.522254      22.474319      4.8512155    
     28500   0.99919614     0.4567949      20.518205      22.473747      4.8337759    
     29000   1.0030305      0.45033984     20.524554      22.479392      4.8075397    
     29500   1.0047106      0.45744056     20.522002      22.486461      4.864868     
     30000   1.0119509      0.45619208     20.516411      22.490482      4.8284366    
     30500   1.0037891      0.45286163     20.516353      22.474851      4.8232334    
     31000   1.0006882      0.45043992     20.52132       22.472746      4.6910531    
     31500   0.99674789     0.45201843     20.517532      22.464625      4.8263574    
     32000   0.99383188     0.45411099     20.51432       22.459132      4.7554665    
     32500   1.0064024      0.45492815     20.510258      22.474743      4.82567      
     33000   0.99575438     0.46521607     20.512381      22.471182      4.852309     
     33500   1.0018392      0.45485034     20.517335      22.474897      4.7575939    
     34000   1.0076549      0.45845263     20.520313      22.4902        4.8052164    
     34500   1.0033203      0.4574759      20.516423      22.478833      4.8544538    
     35000   1.0067856      0.45769914     20.519321      22.487151      4.7940251    
     35500   1.001062       0.4489066      20.511524      22.461976      4.770264     
     36000   0.99729408     0.45115431     20.52219       22.469239      4.6629379    
     36500   0.99725826     0.45777686     20.51726       22.470878      4.8087498    
     37000   0.99670153     0.44860241     20.516774      22.460382      4.7748552    
     37500   1.0063644      0.45279671     20.507768      22.470064      4.7703024    
     38000   0.99488712     0.4547163      20.520037      22.467038      4.8113425    
     38500   1.0017424      0.44950403     20.517577      22.469648      4.7705887    
     39000   1.0061508      0.45096322     20.514299      22.474441      4.7361927    
     39500   1.000961       0.45929026     20.517347      22.478032      4.8024384    
     40000   1.0009253      0.45823673     20.518122      22.4777        4.8485505    
     40500   1.0046625      0.45054029     20.515902      22.473389      4.6837999    
     41000   0.99745015     0.4539171      20.520686      22.470731      4.7545018    
     41500   1.0044383      0.45239949     20.523257      22.482267      4.8680622    
     42000   0.9988201      0.4526176      20.514033      22.464834      4.7645256    
     42500   0.99971795     0.45214621     20.513682      22.465359      4.80065      
     43000   0.99858465     0.45484319     20.515694      22.468368      4.8257195    
     43500   1.002088       0.44675949     20.510361      22.460206      4.7139918    
     44000   0.99778735     0.45781503     20.513054      22.467504      4.8514135    
     44500   0.99845417     0.45319067     20.513792      22.464617      4.7310206    
     45000   0.99984503     0.45208577     20.513499      22.465305      4.7674359    
     45500   1.0046775      0.45120847     20.519426      22.477604      4.7569756    
     46000   1.0016201      0.45580775     20.516068      22.474259      4.8347593    
     46500   1.0020081      0.45572735     20.511889      22.470581      4.8110286    
     47000   0.99664106     0.45179854     20.511732      22.458446      4.7625436    
     47500   1.0035516      0.45623801     20.508897      22.470416      4.9029917    
     48000   1.002502       0.45502267     20.516616      22.475345      4.8463023    
     48500   0.9996834      0.45339293     20.514452      22.467323      4.8259143    
     49000   1.0063431      0.45758283     20.505713      22.472763      4.8397982    
     49500   1.0022199      0.44865547     20.52055       22.472489      4.7923353    
     50000   1.0024731      0.45724935     20.514015      22.474927      4.8459991    
Loop time of 74.5765 on 8 procs for 50000 steps with 32000 atoms

Performance: 695124.815 tau/day, 670.452 timesteps/s, 21.454 Matom-step/s
95.7% CPU use with 1 MPI tasks x 8 OpenMP threads

MPI task timing breakdown:
Section |  min time  |  avg time  |  max time  |%varavg| %total
---------------------------------------------------------------
Pair    | 0.88095    | 0.88095    | 0.88095    |   0.0 |  1.18
Bond    | 3.0182     | 3.0182     | 3.0182     |   0.0 |  4.05
Neigh   | 4.0003     | 4.0003     | 4.0003     |   0.0 |  5.36
Comm    | 23.182     | 23.182     | 23.182     |   0.0 | 31.08
Output  | 0.0068953  | 0.0068953  | 0.0068953  |   0.0 |  0.01
Modify  | 40.708     | 40.708     | 40.708     |   0.0 | 54.59
Other   |            | 2.78       |            |       |  3.73

Nlocal:          32000 ave       32000 max       32000 min
Histogram: 1 0 0 0 0 0 0 0 0 0
Nghost:           9424 ave        9424 max        9424 min
Histogram: 1 0 0 0 0 0 0 0 0 0
Neighs:         155559 ave      155559 max      155559 min
Histogram: 1 0 0 0 0 0 0 0 0 0

Total # of neighbors = 155559
Ave neighs/atom = 4.8612187
Ave special neighs/atom = 1.98
Neighbor list builds = 12549
Dangerous builds = 0
Total wall time: 0:02:00
